! openEMS extraction of the IHP SG13G2 inductor PCell, geometry p1
! port parasitic de-embedded by cascading a negative series L per port
! L_port = [3.748 3.748] pH (Terman flat-ribbon, from port_information.json)
# Hz S RI R 50
0 0.002723257 0 0.996441 0 0.9964577 0 0.002710383 0
50000000 0.002722971977 0.000173831587 0.996440015 -0.0004423538396 0.996456715 -0.0004432212473 0.002710117961 0.0001745099852
100000000 0.00272211891 0.0003477007942 0.9964370601 -0.0008846379933 0.9964536602 -0.0008863699135 0.002709320846 0.0003490552931
150000000 0.002720700804 0.0005216450464 0.9964320352 -0.001326782582 0.9964485354 -0.00132937342 0.00270799666 0.0005236712514
200000000 0.002718721666 0.000695701555 0.9964251404 -0.00176871931 0.9964414407 -0.001772160779 0.002706149413 0.0006983927741
250000000 0.00271618951 0.0008699072533 0.9964161756 -0.002210378509 0.9964322761 -0.002214658618 0.002703786116 0.0008732546971
300000000 0.002713114351 0.001044298147 0.9964053408 -0.002651692273 0.9964211415 -0.002656798047 0.002700915786 0.001048291429
350000000 0.002709507206 0.001218910662 0.996392536 -0.00309259473 0.9964080369 -0.003098508183 0.002697548443 0.001223535697
400000000 0.002705381097 0.001393780022 0.9963777611 -0.003533018 0.9963929624 -0.003539721145 0.002693696108 0.001399021828
450000000 0.002700751048 0.001568940328 0.9963612163 -0.003972899159 0.9963759178 -0.003980369055 0.002689374809 0.001574781926
500000000 0.002695634089 0.001744423712 0.9963427013 -0.004412173365 0.9963570032 -0.00442038701 0.002684598575 0.001750847123
550000000 0.002690049249 0.001920264284 0.9963223162 -0.004850779715 0.9963362186 -0.004859710128 0.002679385439 0.001927247533
600000000 0.002684017562 0.002096492141 0.9963002611 -0.005288657273 0.9963135638 -0.00529827553 0.002673755435 0.002104014253
650000000 0.002677560065 0.002273138414 0.9962763357 -0.005725747208 0.9962891388 -0.005736022306 0.002667728604 0.002281173418
700000000 0.002670701797 0.002450231228 0.9962506401 -0.006161994611 0.9962628437 -0.006172893608 0.002661326986 0.002458754153
750000000 0.0026634678 0.00262779764 0.9962233743 -0.006597343532 0.9962348784 -0.006608831491 0.002654574625 0.002636781516
800000000 0.002655883117 0.002805863802 0.9961943382 -0.007031742155 0.9962052428 -0.007043783072 0.002647496569 0.002815279662
850000000 0.002647977796 0.0029844548 0.9961637318 -0.007465140527 0.9961739368 -0.007477696469 0.002640117866 0.002994272675
900000000 0.002639778886 0.003163592734 0.996131555 -0.007897491762 0.9961410605 -0.007910522763 0.002632467567 0.003173781658
950000000 0.002631318438 0.003343298724 0.9960978077 -0.008328749978 0.9961066138 -0.008342214071 0.002624572727 0.003353827732
1000000000 0.002622626503 0.003523592849 0.99606259 -0.00875887225 0.9960706966 -0.008772729468 0.002616463402 0.003534427974
1050000000 0.002613736138 0.003704493202 0.9960260018 -0.009187819646 0.9960333088 -0.009202025071 0.002608168647 0.003715601479
1100000000 0.002604679399 0.003886015878 0.995988043 -0.009615554279 0.9959945505 -0.009630060949 0.002599720525 0.003897362342
1150000000 0.002595490343 0.004068173998 0.9959487135 -0.01004203927 0.9959544215 -0.01005681622 0.002591149091 0.004079724681
1200000000 0.002586202031 0.004250981598 0.9959081133 -0.01046724667 0.9959131218 -0.01048223389 0.002582487415 0.004262699535
1250000000 0.002576849523 0.004434447823 0.9958663424 -0.01089114655 0.9958704513 -0.01090630419 0.002573767554 0.004446300048
1300000000 0.002567468877 0.004618582706 0.9958234007 -0.01131371903 0.99582671 -0.01132899705 0.002565022571 0.00463053225
1350000000 0.002558094164 0.004803393392 0.9957792881 -0.0117349242 0.9957817979 -0.01175028267 0.00255628554 0.004815404287
1400000000 0.002548760441 0.004988883872 0.9957342046 -0.01215475208 0.9957359147 -0.01217015101 0.002547589519 0.005000922147
1450000000 0.002539502777 0.005175058325 0.99568805 -0.01257318282 0.9956889605 -0.01258857226 0.00253896758 0.005187088008
1500000000 0.00253035823 0.005361918731 0.9956410244 -0.01299020641 0.9956411353 -0.0130055464 0.002530452783 0.005373904849
1550000000 0.002521358871 0.005549465237 0.9955931277 -0.01340581296 0.9955923388 -0.01342104361 0.002522079203 0.005561372816
1600000000 0.002512542771 0.005737693846 0.9955443598 -0.01381997258 0.9955428712 -0.01383506377 0.002513878909 0.005749490909
1650000000 0.002503940982 0.005926603706 0.9954948207 -0.0142327053 0.9954925322 -0.01424760715 0.00250588396 0.005938255273
1700000000 0.002495589577 0.006116186812 0.9954446102 -0.01464399116 0.9954415219 -0.0146586737 0.002498126425 0.006127662902
1750000000 0.002487521627 0.006306439272 0.9953937284 -0.01505383025 0.9953898402 -0.01506824353 0.002490639382 0.006317705902
1800000000 0.002479770193 0.006497350112 0.9953421751 -0.01546222269 0.995337687 -0.01547633658 0.002483451888 0.006508379294
1850000000 0.002472365342 0.006688910433 0.9952901503 -0.01586917842 0.9952848622 -0.0158829431 0.002476596016 0.006699672181
1900000000 0.002465340137 0.006881109211 0.9952376539 -0.01627469752 0.9952316658 -0.01628808296 0.002470100828 0.006891574534
1950000000 0.002458724643 0.007073932591 0.9951846859 -0.0166787901 0.9951779977 -0.01669176633 0.002463995388 0.007084076494
2000000000 0.002452547927 0.007267367582 0.9951312461 -0.01708146627 0.9951240579 -0.01709399312 0.002458306767 0.007277163069
2050000000 0.002446839049 0.007461398283 0.9950775347 -0.01748273593 0.9950696462 -0.01749479363 0.002453063024 0.007470821354
2100000000 0.002441624076 0.007656007694 0.9950234513 -0.01788261928 0.9950150627 -0.01789416765 0.002448291225 0.00766503635
2150000000 0.002436931067 0.007851178812 0.9949691961 -0.0182811262 0.9949603072 -0.01829214528 0.002444014429 0.007859792045
2200000000 0.002432783082 0.008046892775 0.994914769 -0.0186782768 0.9949052797 -0.01868874671 0.002440258699 0.008055070579
2250000000 0.002429206179 0.008243128625 0.9948600698 -0.01907410125 0.9948501802 -0.01908399181 0.00243704709 0.00825085299
2300000000 0.002426222431 0.008439866398 0.9948052986 -0.01946860945 0.9947949085 -0.01947789077 0.002434399674 0.00844712231
2350000000 0.002423852881 0.008637085073 0.9947504552 -0.01986182147 0.9947396647 -0.01987049348 0.002432339496 0.008643856516
2400000000 0.002422118589 0.008834761674 0.9946956397 -0.02025377728 0.9946844486 -0.02026180999 0.002430885612 0.00884103663
2450000000 0.002421037623 0.009032871336 0.9946407519 -0.02064448708 0.9946292602 -0.0206518704 0.002430056086 0.009038641786
2500000000 0.002420628019 0.009231399085 0.9945858918 -0.02103399083 0.9945740995 -0.02104070476 0.002429867964 0.009236650003
2550000000 0.002420905842 0.009430310937 0.9945310593 -0.02142230861 0.9945190664 -0.02142835305 0.002430338305 0.009435032299
2600000000 0.002421886143 0.009629586847 0.9944764544 -0.02180947024 0.9944641608 -0.02181483533 0.002431480149 0.009633778623
2650000000 0.002423582977 0.009829196945 0.9944218771 -0.02219550604 0.9944094828 -0.02220019154 0.002433309564 0.009832849106
2700000000 0.002426008391 0.01002912124 0.9943675273 -0.02258045584 0.9943549322 -0.02258444188 0.002435836583 0.01003223375
2750000000 0.002429173436 0.01022932979 0.9943133049 -0.02296433982 0.994300609 -0.02296763627 0.002439073246 0.01023191262
2800000000 0.002433088155 0.01042980254 0.9942593099 -0.02334718791 0.9942466131 -0.02334980466 0.002443029621 0.01043184565
2850000000 0.0024377586 0.01063050962 0.9942055422 -0.02372905018 0.9941928446 -0.02373096722 0.002447713747 0.01063201297
2900000000 0.0024431948 0.01083143093 0.9941521018 -0.02410994655 0.9941394033 -0.02411118387 0.002453132639 0.01083240449
2950000000 0.002449400811 0.01103253669 0.9940988887 -0.02448991721 0.9940861893 -0.02449047482 0.002459294367 0.01103298041
3000000000 0.00245638068 0.01123379673 0.9940460028 -0.02486899207 0.9940334024 -0.02486887982 0.002466201962 0.01123372057
3050000000 0.00246413844 0.01143519117 0.993993444 -0.02524720117 0.9939809427 -0.02524643907 0.00247386046 0.01143460509
3100000000 0.002472676149 0.01163669014 0.9939411124 -0.02562458472 0.9939288101 -0.02562317261 0.002482270914 0.01163560409
3150000000 0.002481994818 0.01183827346 0.9938892078 -0.02600117247 0.9938771046 -0.02599914034 0.002491437351 0.0118366874
3200000000 0.002492092501 0.01203991124 0.9938377303 -0.02637701444 0.9938257261 -0.02637435244 0.002501357781 0.01203785513
3250000000 0.00250296923 0.0122415836 0.9937864798 -0.02675212099 0.9937747746 -0.02674886879 0.002512033278 0.01223905739
3300000000 0.002514623045 0.01244327044 0.9937356563 -0.02712653185 0.9937242501 -0.02712269945 0.002523462852 0.01244029408
3350000000 0.002527047973 0.01264493178 0.9936852596 -0.02750029704 0.9936741525 -0.02749590442 0.002535641527 0.01264152523
3400000000 0.002540241044 0.01284656781 0.9936351899 -0.02787342676 0.9936243818 -0.02786850391 0.002548567365 0.01284273102
3450000000 0.002554196316 0.01304812832 0.9935855471 -0.02824597088 0.993575138 -0.02824052762 0.002562235359 0.01304390125
3500000000 0.002568907797 0.01324961359 0.993536231 -0.02861794958 0.993526221 -0.0286120159 0.002576640562 0.0132450062
3550000000 0.002584366519 0.0134509934 0.9934874418 -0.02898940257 0.9934777309 -0.0289829986 0.00259177699 0.01344602564
3600000000 0.002600566504 0.01365224786 0.9934389793 -0.02936036019 0.9934297675 -0.02935351559 0.002607636665 0.01364693967
3650000000 0.002617496805 0.01385335714 0.9933908436 -0.02973084247 0.9933821309 -0.02972358722 0.002624212636 0.01384772851
3700000000 0.002635148427 0.01405430111 0.9933431346 -0.03010088926 0.9933349211 -0.03009325333 0.002641495907 0.01404837198
3750000000 0.002653510391 0.01425506987 0.9932958522 -0.03047053058 0.9932880379 -0.03046253411 0.002659476498 0.01424886021
3800000000 0.002672571753 0.01445562326 0.9932489966 -0.03083979642 0.9932416815 -0.03083145924 0.002678146446 0.01444916303
3850000000 0.002692320519 0.01465596156 0.9932024675 -0.03120869699 0.9931956517 -0.03120006906 0.002697492773 0.01464927072
3900000000 0.00271274469 0.01485607461 0.9931563651 -0.03157728212 0.9931500486 -0.03156837342 0.002717507478 0.01484917312
3950000000 0.002733831339 0.01505592259 0.9931105892 -0.03194556199 0.993104772 -0.0319364125 0.002738175615 0.01504884042
4000000000 0.002755566469 0.01525550542 0.9930651399 -0.03231356662 0.9930599221 -0.03230419612 0.002759487202 0.01524826255
4050000000 0.002777937081 0.01545481312 0.9930201171 -0.03268131583 0.9930153988 -0.03267176449 0.002781429241 0.01544742952
4100000000 0.002800928208 0.01565382578 0.9929754208 -0.0330488398 0.992971202 -0.03303913759 0.002803988762 0.01564632142
4150000000 0.002824524901 0.01585252351 0.992930951 -0.03341614874 0.9929273318 -0.03340633545 0.002827151776 0.01584493837
4200000000 0.002848712132 0.01605090602 0.9928869077 -0.03378328225 0.9928838881 -0.03377337786 0.002850905311 0.01604325007
4250000000 0.002873475945 0.0162489636 0.9928431908 -0.03415025054 0.9928406708 -0.03414027521 0.002875234391 0.01624125683
4300000000 0.002898800359 0.01644667627 0.9927997004 -0.03451707381 0.9927977801 -0.03450706731 0.002900126013 0.01643894866
4350000000 0.002924669409 0.01664403401 0.9927565364 -0.03488377185 0.9927551158 -0.03487375436 0.002925565209 0.01663631555
4400000000 0.002951066075 0.01684103673 0.9927136987 -0.03525036465 0.992712778 -0.03524036616 0.002951537002 0.01683333741
4450000000 0.002977976401 0.01703767464 0.9926710874 -0.03561686242 0.9926706666 -0.0356069129 0.002978027389 0.01703002444
4500000000 0.003005384409 0.01723393773 0.9926287025 -0.03598327516 0.9926287817 -0.03597341459 0.003005019434 0.01722634665
4550000000 0.003033272098 0.01742981589 0.9925865439 -0.03634964287 0.9925872231 -0.03633988101 0.003032501093 0.01742231393
4600000000 0.003061624509 0.01762530934 0.9925446116 -0.03671595553 0.9925457909 -0.03670632257 0.003060454426 0.0176179165
4650000000 0.003090425622 0.01782041786 0.9925030057 -0.03708223293 0.9925045851 -0.03707275907 0.003088865434 0.01781314414
4700000000 0.003119658519 0.01801512187 0.992461426 -0.03744848571 0.9924635056 -0.03743919071 0.003117719154 0.01800799727
4750000000 0.003149308172 0.01820942094 0.9924201725 -0.03781473321 0.9924226524 -0.03780563726 0.003147000578 0.01820246548
4800000000 0.003179358584 0.01840332551 0.9923789454 -0.03818098608 0.9923819255 -0.03817210895 0.003176693729 0.01839654919
4850000000 0.003209793782 0.01859682523 0.9923379444 -0.03854724388 0.9923414249 -0.03853861554 0.003206785637 0.01859023807
4900000000 0.0032405988 0.01878992044 0.9922970697 -0.03891351681 0.9923009507 -0.03890515748 0.003237259308 0.01878354245
4950000000 0.00327175665 0.01898260103 0.9922563212 -0.03927982488 0.9922606026 -0.03927174453 0.003268100756 0.01897645223
5000000000 0.003303254351 0.01917487698 0.9922156988 -0.03964615808 0.9922203808 -0.0396383767 0.00329929602 0.01916896739
5050000000 0.003335074889 0.01936674841 0.9921752027 -0.04001253639 0.9921801853 -0.0400050742 0.003330830087 0.01936108805
5100000000 0.003367205322 0.01955820543 0.9921347327 -0.04037896005 0.9921400159 -0.04037183703 0.003362687989 0.01955281434
5150000000 0.003399629648 0.01974925793 0.9920942888 -0.04074543906 0.9920999727 -0.04073865495 0.003394857748 0.01974414612
5200000000 0.003432334884 0.0199399059 0.9920539711 -0.04111196316 0.9920599557 -0.0411055482 0.003427324379 0.01993508341
5250000000 0.00346530703 0.02013015957 0.9920136795 -0.04147855259 0.9920198649 -0.04147250701 0.003460074882 0.02012563643
5300000000 0.003498532128 0.02032000871 0.9919734139 -0.04184519735 0.9919799002 -0.04183954089 0.003493096324 0.02031578495
5350000000 0.003531997203 0.02050945355 0.9919331745 -0.04221191742 0.9919398616 -0.04220664033 0.00352637468 0.02050554921
5400000000 0.003565689226 0.02069851397 0.9918929611 -0.04257869281 0.9918998491 -0.04257382507 0.003559897969 0.02069492909
5450000000 0.003599597247 0.02088719023 0.9918526737 -0.04294553377 0.9918597628 -0.04294107538 0.003593655241 0.02088392484
5500000000 0.003633707261 0.02107548219 0.9918124124 -0.04331245004 0.9918196024 -0.04330840123 0.003627631465 0.02107254633
5550000000 0.003668008331 0.02126338985 0.9917720771 -0.04367942186 0.9917794681 -0.04367579238 0.003661817732 0.02126078356
5600000000 0.003702489426 0.02145092334 0.9917316679 -0.04404646924 0.9917392599 -0.04404325909 0.003696201982 0.02144865668
5650000000 0.003737139582 0.02163809268 0.9916912846 -0.04441357192 0.9916988777 -0.04441079162 0.003730773279 0.02163616568
5700000000 0.003771947794 0.02182489772 0.9916508273 -0.04478075016 0.9916585214 -0.04477838943 0.003765519643 0.02182330042
5750000000 0.00380690511 0.02201134873 0.9916102959 -0.04514798395 0.9916179912 -0.04514604306 0.003800433069 0.02201009119
5800000000 0.003842000528 0.02219745573 0.9915695905 -0.04551527358 0.9915773869 -0.04551375226 0.003835503611 0.02219652799
5850000000 0.003877226089 0.02238320844 0.991528911 -0.04588261849 0.9915367085 -0.04588151701 0.00387072028 0.02238261054
5900000000 0.003912571781 0.02256862728 0.9914880574 -0.04625001923 0.9914958561 -0.0462493376 0.003906074066 0.02256835927
5950000000 0.003948030635 0.02275372212 0.9914471297 -0.04661746555 0.9914548295 -0.04661719404 0.003941558027 0.02275377405
6000000000 0.003983593676 0.02293848296 0.9914060279 -0.04698496771 0.9914137288 -0.04698509604 0.003977162134 0.02293886489
6050000000 0.004019253886 0.02312293983 0.991364852 -0.04735250544 0.991372454 -0.0473530339 0.004012878451 0.02312363179
6100000000 0.004055003336 0.02330708286 0.9913235019 -0.04772007903 0.9913310051 -0.04772099763 0.004048700996 0.0233080849
6150000000 0.004090836031 0.02349092192 0.9912820776 -0.04808767821 0.9912893819 -0.04808898724 0.004084621801 0.02349222409
6200000000 0.00412674595 0.02367447732 0.9912403791 -0.04845531355 0.9912475846 -0.04845699273 0.004120633846 0.02367606967
6250000000 0.004162726155 0.02385773863 0.9911986065 -0.0488229745 0.991205713 -0.04882500383 0.004156730164 0.02385962121
6300000000 0.004198772645 0.02404072631 0.9911566596 -0.04919064134 0.9911635672 -0.04919303112 0.004192905785 0.02404288915
6350000000 0.004234879437 0.02422344022 0.9911145385 -0.04955833409 0.9911212471 -0.04956105434 0.004229155726 0.02422587337
6400000000 0.004271041569 0.02440589037 0.9910722431 -0.04992602277 0.9910787528 -0.04992907349 0.004265473026 0.02440858388
6450000000 0.004307255998 0.02458809664 0.9910298735 -0.05029371709 0.9910360841 -0.05029707859 0.004301853672 0.02459103055
6500000000 0.00434351782 0.02477004935 0.9909872295 -0.05066140765 0.9909932412 -0.05066505964 0.004338292732 0.02477321369
6550000000 0.004379824023 0.02495175835 0.9909444113 -0.05102908419 0.9909502239 -0.05103302668 0.004374786162 0.02495515317
6600000000 0.004416170605 0.02513324382 0.9909014187 -0.0513967467 0.9909069322 -0.05140096001 0.004411330024 0.02513684915
6650000000 0.004452556651 0.02531449578 0.9908581518 -0.05176438553 0.9908634662 -0.05176884936 0.004447922374 0.02531830167
6700000000 0.004488978077 0.02549554396 0.9908148105 -0.05213200007 0.9908198257 -0.05213669474 0.004484558156 0.02549953043
6750000000 0.004525433005 0.02567636882 0.9907711949 -0.05249958095 0.9907759109 -0.05250449648 0.004521234435 0.02568053592
6800000000 0.004561919397 0.02585700009 0.9907274049 -0.0528671179 0.9907318216 -0.05287223429 0.004557950233 0.02586132784
6850000000 0.004598437243 0.02603743779 0.9906834404 -0.05323462092 0.9906875578 -0.0532399182 0.004594702543 0.02604190622
6900000000 0.004634983645 0.02621768194 0.9906393015 -0.05360206004 0.9906431196 -0.05360752821 0.004631489437 0.02622228108
6950000000 0.004671559538 0.02639775273 0.9905949882 -0.05396944528 0.9905984069 -0.05397507469 0.004668308848 0.0264024726
7000000000 0.004708163026 0.02657764019 0.9905504004 -0.05433677699 0.9905535196 -0.05434252732 0.004705160915 0.02658246081
7050000000 0.004744794058 0.02675736417 0.9905056381 -0.05470403486 0.9905084578 -0.05470990613 0.004742043556 0.02676227558
7100000000 0.004781453714 0.02693692489 0.9904607014 -0.05507121893 0.9904631215 -0.05507718148 0.00477895585 0.02694191708
7150000000 0.004818139941 0.02711633218 0.9904154901 -0.05543832956 0.9904177106 -0.05544437274 0.004815897747 0.02712139519
7200000000 0.004854855806 0.02729559626 0.9903701042 -0.05580534643 0.990372025 -0.05581146058 0.004852869379 0.02730070009
7250000000 0.004891600303 0.02747471699 0.9903246438 -0.05617228923 0.9903260649 -0.05617843505 0.004889870677 0.02747985166
7300000000 0.004928374498 0.02765369456 0.9902788088 -0.05653912902 0.9902800301 -0.0565453055 0.004926900706 0.02765885007
7350000000 0.004965180372 0.02783253885 0.9902328993 -0.05690587479 0.9902337207 -0.05691206263 0.004963960448 0.02783770521
7400000000 0.005002017936 0.0280112597 0.9901868151 -0.05727251692 0.9901873366 -0.05727869579 0.005001051915 0.02801642691
7450000000 0.005038890225 0.02818985767 0.9901404563 -0.05763905579 0.9901406778 -0.0576452157 0.005038174177 0.02819500574
7500000000 0.005075798276 0.02836834244 0.9900939228 -0.05800548107 0.9900938442 -0.05801159203 0.005075328272 0.02837345136
7550000000 0.005112744049 0.02854671388 0.9900473147 -0.05837179245 0.990046836 -0.05837785484 0.005112517091 0.02855178366
7600000000 0.005149728621 0.02872498237 0.9900004318 -0.05873798067 0.9899996531 -0.05874397414 0.005149740783 0.028729993
7650000000 0.005186754986 0.02890314777 0.9899533743 -0.0591040554 0.9899522953 -0.05910994996 0.005187000343 0.02890807923
7700000000 0.005223825168 0.02908121012 0.989906142 -0.05947000668 0.9899047628 -0.05947579234 0.005224298723 0.0290860624
7750000000 0.005260942205 0.02925917945 0.989858735 -0.05983581454 0.9898570554 -0.05984149132 0.005261636998 0.02926394254
7800000000 0.005298107056 0.02943705561 0.9898111533 -0.06020150901 0.9898092733 -0.06020704655 0.005299017128 0.0294417195
7850000000 0.0053353228 0.029614849 0.9897633968 -0.06056706013 0.9897612163 -0.06057244881 0.005336441228 0.02961939367
7900000000 0.005372592444 0.02979254912 0.9897155654 -0.06093246756 0.9897130845 -0.06093770739 0.005373911235 0.02979697455
7950000000 0.005409918971 0.02997017655 0.9896674592 -0.06129774208 0.9896647778 -0.0613028127 0.005411429203 0.02997446272
8000000000 0.005447304434 0.03014772096 0.9896192782 -0.06166287298 0.9896162962 -0.06166776478 0.005448998114 0.03015186784
8050000000 0.0054847518 0.03032519239 0.9895709224 -0.06202787067 0.9895677397 -0.06203256327 0.00548662101 0.03032917995
8100000000 0.005522264139 0.03050259106 0.9895223917 -0.06239271517 0.9895190083 -0.06239720859 0.005524297885 0.03050641927
8150000000 0.005559843519 0.03067990681 0.9894737861 -0.06275740616 0.989470102 -0.06276169078 0.005562033808 0.03068357565
8200000000 0.005597493847 0.03085715969 0.9894250056 -0.06312195403 0.9894211207 -0.06312601949 0.005599829762 0.03086064913
8250000000 0.005635217163 0.03103434974 0.9893760502 -0.06348635884 0.9893720644 -0.06349018476 0.005637688712 0.03103765973
8300000000 0.005673015527 0.03121146698 0.9893270198 -0.06385061022 0.9893228332 -0.06385419699 0.005675613757 0.0312145875
8350000000 0.005710893935 0.03138852165 0.9892778145 -0.06421470861 0.989273427 -0.06421805623 0.005713606853 0.03139145267
8400000000 0.005748854383 0.03156551341 0.9892284342 -0.06457866404 0.9892240458 -0.06458175173 0.005751671037 0.03156824487
8450000000 0.005786898976 0.03174243268 0.9891789789 -0.06494245614 0.9891743895 -0.0649452947 0.005789808374 0.03174496455
8500000000 0.005825030579 0.0319192989 0.9891294486 -0.06530610497 0.9891247582 -0.065308684 0.005828022769 0.03192162114
8550000000 0.005863252298 0.03209610251 0.9890798434 -0.06566960054 0.9890749519 -0.06567192045 0.005866315248 0.03209822508
8600000000 0.005901567161 0.03227284335 0.989030063 -0.06603294328 0.9890251705 -0.06603499328 0.00590468996 0.0322747462
8650000000 0.005939977195 0.03244952184 0.9889801075 -0.06639613325 0.988975214 -0.06639791333 0.005943147812 0.03245121493
8700000000 0.005978485301 0.03262614743 0.9889301771 -0.06675917966 0.9889251825 -0.06676069023 0.005981692784 0.03262762071
8750000000 0.006017093661 0.03280270076 0.9888800715 -0.06712207336 0.9888749758 -0.06712331442 0.006020326978 0.03280396419
8800000000 0.006055805153 0.03297920125 0.9888298908 -0.06748482398 0.988824794 -0.06748578512 0.006059053313 0.03298025479
8850000000 0.006094621853 0.03315563914 0.988779635 -0.06784742155 0.9887745371 -0.06784811277 0.006097872905 0.03315647274
8900000000 0.006133545787 0.03333201489 0.9887292041 -0.06820987651 0.9887241051 -0.06821029781 0.006136789699 0.0333326385
8950000000 0.006172578942 0.03350832769 0.988678798 -0.06857217806 0.9886736979 -0.06857233945 0.006175804722 0.03350874126
9000000000 0.00621172438 0.0336845682 0.9886282167 -0.06893434708 0.9886232155 -0.06893423812 0.006214919994 0.03368478169
9050000000 0.006250984009 0.03386075605 0.9885776603 -0.06929637276 0.9885726579 -0.06929600388 0.006254139507 0.03386075941
9100000000 0.006290357919 0.03403688167 0.9885269287 -0.06965826596 0.9885220251 -0.06965762673 0.006293463309 0.03403667486
9150000000 0.006329850123 0.0342129347 0.9884762218 -0.07002001588 0.9884713172 -0.07001912673 0.00633289537 0.03421252767
9200000000 0.006369460627 0.03438892557 0.9884253397 -0.07038163339 0.988420534 -0.07038049389 0.006372435739 0.03438831827
9250000000 0.006409192449 0.03456484369 0.9883744824 -0.07074310768 0.9883697757 -0.07074173781 0.006412087347 0.03456405608
9300000000 0.006449045553 0.0347406995 0.9883235499 -0.07110446919 0.9883189421 -0.07110284896 0.006451852288 0.03473972155
9350000000 0.006489023054 0.03491648349 0.988272442 -0.0714656884 0.9882679332 -0.0714638478 0.006491731588 0.03491532514
9400000000 0.00652912485 0.03509219459 0.9882213589 -0.07182679445 0.9882170491 -0.07182472304 0.006531726191 0.0350908558
9450000000 0.006569352045 0.03526783371 0.9881702005 -0.07218776782 0.9881659897 -0.07218548603 0.006571838155 0.03526632443
9500000000 0.006609706612 0.03544339021 0.9881190668 -0.0725486281 0.988114955 -0.07254613592 0.006612069452 0.03544172041
9550000000 0.006650188527 0.03561888479 0.9880677578 -0.07290936618 0.9880638451 -0.07290668318 0.006652421104 0.03561705443
9600000000 0.006690798912 0.03579428703 0.9880164734 -0.07326999122 0.9880126598 -0.07326711782 0.006692894142 0.03579231607
9650000000 0.006731538674 0.03596961696 0.9879651137 -0.07363050369 0.9879614992 -0.07362744944 0.006733489561 0.03596750537
9700000000 0.006772408847 0.03614486483 0.9879136786 -0.0739909136 0.9879102634 -0.07398768849 0.006774208352 0.03614262258
9750000000 0.006813408428 0.03632004068 0.9878621682 -0.074351211 0.9878589522 -0.07434783502 0.006815051554 0.03631766773
9800000000 0.006854538492 0.03649512407 0.9878106823 -0.07471140543 0.9878076656 -0.07470787859 0.0068560202 0.03649263038
9850000000 0.006895799024 0.03667011548 0.9877591211 -0.07507150739 0.9877563037 -0.07506783967 0.006897113224 0.03666752103
9900000000 0.006937191018 0.03684502494 0.9877074845 -0.0754315069 0.9877048664 -0.07542771829 0.006938333714 0.03684232971
9950000000 0.006978713482 0.03701984202 0.9876558724 -0.07579141353 0.9876534538 -0.07578751402 0.006979680584 0.03701706597
1e+10 0.007020366422 0.03719457719 0.987604185 -0.07615122774 0.9876019658 -0.07614722733 0.007021154979 0.03719171031
1.005e+10 0.007062149907 0.03736921026 0.9875524221 -0.07651095958 0.9875505024 -0.07650685778 0.007062756782 0.03736628253
1.01e+10 0.007104063874 0.03754376171 0.9875005837 -0.07687059906 0.9874988636 -0.07686642634 0.007104486116 0.0375407631
1.015e+10 0.007146108359 0.03771821087 0.9874487699 -0.07723016573 0.9874472494 -0.07722592208 0.007146342874 0.03771516137
1.02e+10 0.007188281396 0.03789255799 0.9873968805 -0.07758965008 0.9873956598 -0.07758535502 0.007188327139 0.03788946758
1.025e+10 0.007230582973 0.03806681333 0.9873450158 -0.07794906165 0.9873438947 -0.07794471613 0.007230439944 0.038063682
1.03e+10 0.007273012132 0.0382409669 0.9872929754 -0.07830839143 0.9872921543 -0.07830402447 0.007272679237 0.03823781464
1.035e+10 0.00731556883 0.03841501827 0.9872409597 -0.07866765847 0.9872404383 -0.07866327007 0.00731504502 0.03841185507
1.04e+10 0.007358252096 0.03858896792 0.9871889684 -0.07902686279 0.9871885469 -0.0790224639 0.007357538371 0.03858579377
1.045e+10 0.007401061021 0.03876280587 0.9871368015 -0.07938599537 0.98713668 -0.07938160503 0.007400157283 0.03875964078
1.05e+10 0.007443993431 0.03893655191 0.9870846592 -0.07974507527 0.9870847377 -0.07974070394 0.007442901679 0.03893339587
1.055e+10 0.00748705051 0.03911018631 0.9870324412 -0.08010409299 0.9870327199 -0.08009975067 0.007485771694 0.03910704932
1.06e+10 0.007530228206 0.03928370881 0.9869801478 -0.08046305854 0.9869807266 -0.08045875472 0.007528765226 0.03928061088
1.065e+10 0.007573527585 0.03945711946 0.9869278787 -0.08082196144 0.9869286577 -0.08081770662 0.007571882439 0.03945406059
1.07e+10 0.007616946535 0.03963042851 0.9868755341 -0.08118082222 0.9868765133 -0.08117662638 0.00761512217 0.03962741872
1.075e+10 0.007660483146 0.03980362599 0.9868231139 -0.08153963087 0.9868242935 -0.08153551401 0.007658483511 0.03980067528
1.08e+10 0.007704136435 0.03997671191 0.9867706181 -0.08189839743 0.986771998 -0.08189435954 0.007701965527 0.0399738203
1.085e+10 0.007747906369 0.0401496863 0.9867180467 -0.08225712191 0.9867196271 -0.08225318299 0.007745567083 0.04014687379
1.09e+10 0.007791788972 0.04032254866 0.9866654997 -0.08261580381 0.9866672806 -0.08261196385 0.007789287306 0.04031981528
1.095e+10 0.007835784277 0.04049528951 0.9866128771 -0.08297445365 0.9866148585 -0.08297072264 0.007833124176 0.04049264528
1.1e+10 0.007879890316 0.04066792938 0.9865600788 -0.08333305197 0.9865622608 -0.08332944991 0.007877077776 0.04066537433
1.105e+10 0.007924106099 0.04084043728 0.9865073048 -0.08369162776 0.9865096874 -0.08368814463 0.007921146014 0.04083799142
1.11e+10 0.007968428504 0.04101284373 0.9864544553 -0.08405017154 0.9864570386 -0.08404682734 0.007965327868 0.04101050709
1.115e+10 0.008012857726 0.04118512874 0.9864016301 -0.08440867279 0.9864042141 -0.08440547856 0.008009621484 0.04118291135
1.12e+10 0.008057390626 0.04135730233 0.9863486292 -0.08476715259 0.986351414 -0.08476411728 0.008054024773 0.04135520421
1.125e+10 0.008102026272 0.04152936452 0.9862955527 -0.08512561042 0.9862985382 -0.08512272403 0.008098538803 0.04152738571
1.13e+10 0.008146762727 0.04170130558 0.9862424004 -0.0854840363 0.9862454868 -0.08548131934 0.008143160586 0.04169945612
1.135e+10 0.008191597942 0.04187312475 0.9861892725 -0.08584243971 0.9861924598 -0.08583989218 0.008187888017 0.04187142466
1.14e+10 0.008236530913 0.04204484309 0.9861359688 -0.08620081172 0.9861392571 -0.08619845362 0.008232720305 0.04204327241
1.145e+10 0.008281559724 0.04221642983 0.9860825894 -0.08655917182 0.9860860787 -0.08655699261 0.008277656321 0.0422150086
1.15e+10 0.008326682301 0.04238791551 0.9860291344 -0.08691751002 0.9860327246 -0.08691551023 0.008322694098 0.04238664377
1.155e+10 0.008371897766 0.04255928015 0.9859756035 -0.08727581633 0.9859791947 -0.0872740165 0.008367832758 0.04255815794
1.16e+10 0.008417203955 0.04273053324 0.985921997 -0.08763412077 0.9859256892 -0.08763251035 0.008413069136 0.0427295606
1.165e+10 0.008462599064 0.04290166533 0.9858683146 -0.08799239334 0.985872008 -0.08799099289 0.00845840332 0.0429008623
1.17e+10 0.008508080949 0.04307269615 0.9858144565 -0.08835065462 0.985818351 -0.08834945303 0.008503832383 0.04307204277
1.175e+10 0.008553649759 0.043243606 0.9857606227 -0.08870890351 0.9857644182 -0.08870789243 0.00854935631 0.04324311233
1.18e+10 0.008599302402 0.04341440463 0.9857066131 -0.08906713113 0.9857105097 -0.08906632946 0.00859497201 0.0434140807
1.185e+10 0.008645037972 0.04358509232 0.9856525276 -0.08942533694 0.9856564254 -0.08942474523 0.008640679687 0.04358492818
1.19e+10 0.008690855351 0.04375567883 0.9855983664 -0.08978353097 0.9856022654 -0.08978314921 0.008686476167 0.04375567451
1.195e+10 0.00873675174 0.0439261447 0.9855440294 -0.09014171376 0.9855479294 -0.09014153197 0.008732361596 0.04392631027
1.2e+10 0.008782726967 0.04409650943 0.9854896166 -0.0904998848 0.9854935177 -0.09049990296 0.008778332913 0.04409683492
1.205e+10 0.008828779102 0.04426677301 0.9854351279 -0.09085803408 0.9854390302 -0.0908582522 0.008824390188 0.04426724847
1.21e+10 0.008874907237 0.04443692602 0.9853804633 -0.09121616219 0.9853843669 -0.09121659027 0.008870530403 0.04443756149
1.215e+10 0.008921109311 0.04460696792 0.985325723 -0.09157428857 0.9853296276 -0.09157490662 0.008916752494 0.04460777346
1.22e+10 0.008967385307 0.04477691902 0.9852709068 -0.09193239325 0.9852747125 -0.09193320183 0.008963056672 0.04477786466
1.225e+10 0.009013732323 0.04494675933 0.9852159147 -0.0922904768 0.9852197216 -0.09229148535 0.009009440753 0.04494786513
1.23e+10 0.00906015132 0.04511649887 0.9851608467 -0.09264854868 0.9851645547 -0.09264974776 0.009055902865 0.04511775486
1.235e+10 0.00910664028 0.04528614795 0.9851056029 -0.09300660947 0.9851092119 -0.09300798909 0.009102441994 0.04528754418
1.24e+10 0.00915319731 0.04545568601 0.9850502831 -0.09336464861 0.9850537932 -0.09336620878 0.00914905713 0.04545723253
1.245e+10 0.00919982028 0.04562514305 0.9849948875 -0.09372266613 0.9849982986 -0.09372439684 0.00919574926 0.04562682992
1.25e+10 0.009246517344 0.04579450003 0.9849393159 -0.09408066262 0.984942528 -0.09408257448 0.009242515537 0.04579631726
1.255e+10 0.009293270259 0.04596375601 0.9848835685 -0.09443867807 0.9848867817 -0.0944407599 0.009289347604 0.04596571365
1.26e+10 0.009340099622 0.04613293165 0.9848277448 -0.09479658195 0.9848307591 -0.09479886495 0.00933625623 0.04613500971
1.265e+10 0.009386984864 0.04630201664 0.9847717457 -0.09515459489 0.9847746601 -0.09515687841 0.009383240793 0.04630420524
1.27e+10 0.00943394603 0.04647101141 0.9847155704 -0.09551251685 0.984718386 -0.09551500096 0.009430281212 0.04647332043
1.275e+10 0.009480963637 0.04663991492 0.9846594186 -0.0958703467 0.9846620354 -0.09587303199 0.009477408134 0.04664233455
1.28e+10 0.009528047164 0.04680873851 0.9846029917 -0.09622828624 0.9846055085 -0.09623097207 0.009524591029 0.04681125868
1.285e+10 0.009575186566 0.04697748154 0.9845464884 -0.09658613428 0.9845488064 -0.09658902131 0.009571849799 0.04698010239
1.29e+10 0.009622392755 0.04714614402 0.9844898086 -0.09694389141 0.9844920273 -0.09694687903 0.00961916547 0.04714884548
1.295e+10 0.009669664609 0.04731472668 0.984432953 -0.09730165774 0.9844349729 -0.09730484658 0.009666556807 0.04731750883
1.3e+10 0.009716992653 0.04748322854 0.9843760217 -0.09765943264 0.9843778422 -0.09766272269 0.009714014332 0.04748609143
1.305e+10 0.009764386933 0.04765164999 0.9843189145 -0.09801721674 0.9843206351 -0.09802050736 0.009761528088 0.04765459357
1.31e+10 0.009811847434 0.04782000134 0.9842617309 -0.09837490948 0.9842631521 -0.09837830193 0.009809118186 0.04782300568
1.315e+10 0.009859364106 0.04798829258 0.9842042715 -0.09873261204 0.9842055927 -0.09873600508 0.009856764576 0.04799133767
1.32e+10 0.009906947123 0.04815649348 0.9841467356 -0.09909022327 0.9841478575 -0.09909371754 0.009904477187 0.04815959933
1.325e+10 0.009954586221 0.0483246437 0.984089124 -0.09944784317 0.9840900459 -0.09945133867 0.009952256064 0.04832778038
1.33e+10 0.01000229172 0.04849271456 0.9840312358 -0.09980537302 0.9840319584 -0.09980896977 0.01000010128 0.04849589207
1.335e+10 0.0100500634 0.04866072485 0.9839732719 -0.1001629116 0.9839737944 -0.1001665096 0.0100480028 0.04866392314
1.34e+10 0.01009790108 0.04882866525 0.983915132 -0.1005204596 0.9839154546 -0.1005240588 0.01009597031 0.04883188431
1.345e+10 0.01014579524 0.04899655536 0.9838568158 -0.1008779169 0.9838570384 -0.1008815168 0.01014400444 0.04899977526
1.35e+10 0.01019375602 0.04916437525 0.9837984231 -0.1012352831 0.9837984457 -0.1012388842 0.01019210512 0.04916760601
1.355e+10 0.01024178282 0.04933213565 0.9837398544 -0.1015926587 0.9837395771 -0.1015962617 0.01024027195 0.04933535726
1.36e+10 0.01028987612 0.04949984558 0.9836811094 -0.1019499438 0.9836807321 -0.1019535474 0.01028849534 0.04950304798
1.365e+10 0.01033802545 0.04966749601 0.9836221884 -0.1023072384 0.9836216112 -0.1023108433 0.01033679477 0.04967067933
1.37e+10 0.01038625142 0.04983508641 0.983563091 -0.1026644425 0.9835624138 -0.1026680481 0.01038515083 0.04983825053
1.375e+10 0.01043454362 0.05000263708 0.9835039178 -0.1030216556 0.9835029399 -0.1030251631 0.01043357325 0.050005762
1.38e+10 0.01048290244 0.05017012737 0.9834445679 -0.1033787782 0.9834434894 -0.1033821864 0.01048206237 0.0501732031
1.385e+10 0.0105313373 0.05033756842 0.9833850423 -0.1037359106 0.9833837631 -0.10373922 0.01053061752 0.05034059489
1.39e+10 0.01057983876 0.05050495914 0.9833254401 -0.1040929519 0.9833239603 -0.1040961627 0.01057923927 0.05050793637
1.395e+10 0.01062840692 0.05067230054 0.9832655613 -0.1044499035 0.983263981 -0.1044530149 0.01062792779 0.05067521852
1.4e+10 0.01067705136 0.0508396021 0.9832056061 -0.1048067642 0.9832038257 -0.104809877 0.01067669266 0.05084245083
1.405e+10 0.01072577215 0.05100685383 0.9831454749 -0.1051636347 0.9831435939 -0.1051666481 0.01072551394 0.05100962319
1.41e+10 0.01077455924 0.05117406571 0.9830852679 -0.1055205143 0.9830831856 -0.105523329 0.01077441153 0.05117675577
1.415e+10 0.01082342311 0.05134122844 0.9830247836 -0.1058772043 0.9830226013 -0.1058800198 0.01082338597 0.0513438292
1.42e+10 0.01087237365 0.05150835147 0.9829642235 -0.1062339036 0.9829618398 -0.1062365204 0.01087242707 0.05151086279
1.425e+10 0.01092139052 0.05167543471 0.9829034867 -0.1065905127 0.9829010024 -0.1065930302 0.01092153458 0.05167784661
1.43e+10 0.01097049376 0.05184247835 0.982842674 -0.1069471311 0.9828399884 -0.1069494499 0.01097071853 0.05184478075
1.435e+10 0.01101967342 0.05200948265 0.9827815847 -0.1073036601 0.9827788985 -0.1073058789 0.01101997889 0.05201167556
1.44e+10 0.01106893012 0.05217644726 0.9827204189 -0.1076600984 0.9827176313 -0.1076621179 0.01106931632 0.05217853067
1.445e+10 0.01111827324 0.05234337232 0.9826591764 -0.108016446 0.9826561881 -0.1080183669 0.01111873015 0.05234534619
1.45e+10 0.01116770285 0.05251025855 0.9825976579 -0.1083728044 0.9825945683 -0.1083745259 0.01116822055 0.05251211279
1.455e+10 0.01121721914 0.05267711492 0.9825360629 -0.1087290721 0.9825328719 -0.1087305943 0.01121778769 0.05267883947
1.46e+10 0.01126681187 0.05284393177 0.9824742911 -0.1090852499 0.9824710995 -0.1090866722 0.01126743122 0.05284553664
1.465e+10 0.01131650135 0.05301071923 0.9824124428 -0.1094413373 0.9824091504 -0.1094426603 0.01131716163 0.05301218433
1.47e+10 0.01136627772 0.05317746792 0.9823503184 -0.1097974355 0.982347024 -0.1097984584 0.01136696887 0.0531788032
1.475e+10 0.01141614021 0.05334417694 0.9822882174 -0.1101534425 0.9822847222 -0.1101543668 0.01141686224 0.05334538239
1.48e+10 0.01146609986 0.05351085694 0.9822258396 -0.1105093605 0.9822223431 -0.1105100848 0.01146684284 0.05351192251
1.485e+10 0.01151614635 0.05367749725 0.9821633851 -0.110865188 0.9821598872 -0.1108657123 0.01151690028 0.05367842285
1.49e+10 0.01156628902 0.05384410871 0.9821007546 -0.1112210259 0.9820972554 -0.1112213502 0.0115670539 0.05384489434
1.495e+10 0.01161652893 0.0540106809 0.9820380467 -0.1115766734 0.9820344467 -0.1115768985 0.0116172947 0.0540113365
1.5e+10 0.01166686535 0.05417722391 0.9819751627 -0.1119323312 0.9819715613 -0.1119323564 0.01166761207 0.05417773934
1.505e+10 0.01171729829 0.05434373779 0.9819121027 -0.1122879996 0.9819085992 -0.112287724 0.01171803598 0.05434411312
1.51e+10 0.01176782818 0.05451021251 0.9818489652 -0.1126434777 0.981845461 -0.1126431021 0.01176853684 0.05451044759
1.515e+10 0.01181846466 0.05467665856 0.9817856515 -0.1129989662 0.981782146 -0.1129983907 0.01181913429 0.05467675332
1.52e+10 0.01186919844 0.05484306512 0.9817222604 -0.1133542646 0.9817187541 -0.1133535891 0.01186982897 0.05484302956
1.525e+10 0.01192003881 0.05500944272 0.9816586932 -0.1137095735 0.9816552855 -0.1137086973 0.01192062031 0.05500926676
1.53e+10 0.01197097588 0.05517578166 0.9815949498 -0.1140648931 0.9815916399 -0.1140637161 0.01197150829 0.05517547531
1.535e+10 0.01202201991 0.05534209165 0.9815311288 -0.1144200225 0.9815278182 -0.1144187455 0.01202248331 0.05534164476
1.54e+10 0.01207316056 0.05550836198 0.9814672318 -0.1147751618 0.9814640197 -0.1147736841 0.01207356481 0.05550779462
1.545e+10 0.01212441801 0.05567459424 0.9814031577 -0.1151302119 0.981399945 -0.1151286343 0.0121247531 0.05567390633
1.55e+10 0.01217578279 0.05584079723 0.9813389068 -0.1154851727 0.9813358926 -0.1154833936 0.0121760288 0.05583997862
1.555e+10 0.01222725395 0.05600696145 0.9812745797 -0.1158401435 0.981271664 -0.1158381637 0.01222741074 0.05600603216
1.56e+10 0.01227883259 0.05617308682 0.9812101749 -0.1161949243 0.9812072585 -0.1161928445 0.01227890016 0.05617204683
1.565e+10 0.01233052757 0.05633918356 0.9811455939 -0.116549716 0.9811427767 -0.1165475355 0.01233048599 0.05633802272
1.57e+10 0.0123823297 0.05650524154 0.9810808359 -0.1169044186 0.981078218 -0.1169021366 0.01238217883 0.05650397985
1.575e+10 0.01243423871 0.05667125082 0.9810160016 -0.1172591313 0.9810134822 -0.1172566486 0.01243397848 0.05666989828
1.58e+10 0.01248626478 0.05683723111 0.9809510903 -0.1176137542 0.9809486694 -0.1176110707 0.01248588527 0.05683577763
1.585e+10 0.01253839769 0.05700317275 0.9808860019 -0.117968288 0.9808837804 -0.117965503 0.01253789883 0.05700162834
1.59e+10 0.01259064789 0.05716906581 0.9808208365 -0.1183227321 0.9808187142 -0.1183198464 0.0125900296 0.05716744046
1.595e+10 0.01264301452 0.05733493041 0.9807554948 -0.1186771872 0.9807535717 -0.1186742 0.01264225679 0.05733322397
1.6e+10 0.01269549847 0.05750074648 0.9806900759 -0.1190315526 0.980688252 -0.1190284646 0.01269460124 0.05749896894
1.605e+10 0.01274808959 0.05766652323 0.9806245799 -0.1193858283 0.9806229553 -0.1193826388 0.01274705286 0.05766467459
1.61e+10 0.01280079779 0.05783225229 0.9805589068 -0.119740015 0.9805573822 -0.1197368249 0.01279962141 0.05783035256
1.615e+10 0.01285362286 0.05799794258 0.9804930572 -0.120094213 0.9804918319 -0.1200909205 0.01285229684 0.05799599166
1.62e+10 0.01290656454 0.05816358416 0.9804272312 -0.1204484206 0.9804261052 -0.1204450274 0.01290508879 0.05816159206
1.625e+10 0.01295962392 0.0583291873 0.9803612273 -0.1208024394 0.9803603012 -0.1207990447 0.01295799845 0.05832715402
1.63e+10 0.01301280039 0.0584947425 0.9802950469 -0.1211564694 0.98029432 -0.1211529731 0.01301101511 0.05849267794
1.635e+10 0.0130660935 0.05866024907 0.98022879 -0.1215105099 0.9802282624 -0.1215069121 0.01306414835 0.05865816324
1.64e+10 0.01311950364 0.058825707 0.9801624558 -0.121864461 0.9801621282 -0.1218608616 0.01311739853 0.05882360989
1.645e+10 0.01317302125 0.05899111656 0.9800960443 -0.1222183224 0.9800958167 -0.1222147223 0.01317075619 0.05898900817
1.65e+10 0.01322666627 0.05915648794 0.9800294556 -0.1225720953 0.980029428 -0.1225684937 0.01322424117 0.05915437827
1.655e+10 0.01328041777 0.05932180153 0.9799626902 -0.1229258795 0.9799628633 -0.1229223763 0.01327783256 0.05931970057
1.66e+10 0.01333429665 0.05948706584 0.9798959482 -0.1232796736 0.9798963207 -0.1232760688 0.01333154133 0.05948497351
1.665e+10 0.0133882828 0.05965227232 0.9798290289 -0.123633379 0.9798296013 -0.1236297727 0.01338537722 0.05965020878
1.67e+10 0.0134423961 0.05981744116 0.9797619322 -0.1239869959 0.9797627054 -0.1239834881 0.01343932024 0.05981540624
1.675e+10 0.01349661663 0.05998254107 0.9796948588 -0.1243406227 0.979695732 -0.1243371141 0.01349338042 0.05998054485
1.68e+10 0.01355095389 0.06014760298 0.9796276088 -0.124694261 0.979628682 -0.1246907508 0.01354755733 0.06014564545
1.685e+10 0.01360539849 0.06031260717 0.9795601812 -0.1250478108 0.9795614552 -0.125044399 0.0136018615 0.06031069849
1.69e+10 0.01365997073 0.06047755301 0.9794926762 -0.1254012713 0.9794941511 -0.125397958 0.01365627315 0.06047571302
1.695e+10 0.01371464985 0.06064244045 0.9794250945 -0.1257547426 0.9794267701 -0.1257515277 0.01371080168 0.06064066922
1.7e+10 0.01376944623 0.06080727995 0.9793574361 -0.1261082247 0.9793592117 -0.1261050089 0.01376544747 0.06080557748
1.705e+10 0.01382434996 0.06097206145 0.9792896001 -0.1264616183 0.9792915765 -0.126458501 0.01382021044 0.06097044782
1.71e+10 0.01387937105 0.06113678507 0.9792216866 -0.1268149228 0.9792237646 -0.1268120047 0.01387509077 0.06113526027
1.715e+10 0.01393449951 0.06130145073 0.9791535961 -0.1271682389 0.979155875 -0.1271654192 0.01393007847 0.06130001476
1.72e+10 0.0139897449 0.06146606862 0.979085429 -0.1275215659 0.9790878086 -0.1275188454 0.01398519302 0.06146473156
1.725e+10 0.01404509728 0.06163061787 0.979017185 -0.1278749038 0.9790197655 -0.1278722817 0.01404041446 0.06162938971
1.73e+10 0.01410055758 0.06179511 0.9789487633 -0.1282281534 0.9789514446 -0.1282256304 0.01409575383 0.06179399083
1.735e+10 0.01415613527 0.06195954398 0.978880264 -0.1285813139 0.9788830469 -0.1285789902 0.0141512105 0.06195854379
1.74e+10 0.0142118096 0.06212392017 0.9788115886 -0.1289345862 0.9788145723 -0.1289323608 0.01420678375 0.06212304912
1.745e+10 0.01426760141 0.06228823866 0.9787428355 -0.1292877694 0.9787459208 -0.1292857433 0.01426246453 0.06228748667
1.75e+10 0.01432349112 0.06245248886 0.9786740046 -0.1296408635 0.9786771916 -0.1296390366 0.01431825306 0.06245187601
1.755e+10 0.0143794875 0.06261669184 0.9786049977 -0.1299940695 0.9786082856 -0.1299923417 0.01437415825 0.06261621821
1.76e+10 0.01443559142 0.06278082671 0.978535913 -0.1303471865 0.9785393025 -0.130345658 0.01443018097 0.06278049237
1.765e+10 0.01449180332 0.06294490427 0.9784666505 -0.1307002153 0.9784701416 -0.1306988859 0.0144863016 0.06294471914
1.77e+10 0.0145481119 0.06310892379 0.9783973118 -0.1310533552 0.9784009039 -0.131052125 0.0145425489 0.06310888813
1.775e+10 0.01460452812 0.06327287569 0.9783278954 -0.1314064061 0.978331489 -0.131405376 0.01459889374 0.06327299941
1.78e+10 0.01466104187 0.06343678032 0.9782583011 -0.1317593689 0.9782618972 -0.1317586388 0.01465534629 0.06343704349
1.785e+10 0.01471765289 0.06360061736 0.9781885306 -0.1321124436 0.9781922276 -0.1321118127 0.01471190593 0.06360104008
1.79e+10 0.01477436144 0.06376439637 0.9781186822 -0.1324654295 0.9781224809 -0.1324649977 0.01476858311 0.06376497879
1.795e+10 0.01483117729 0.06392810791 0.9780487568 -0.1328184265 0.9780525572 -0.1328181947 0.01482535749 0.06392885996
1.8e+10 0.01488808031 0.06409177227 0.9779786544 -0.1331714354 0.9779824565 -0.1331714037 0.01488223913 0.06409268411
1.805e+10 0.01494509149 0.06425536912 0.977908474 -0.1335243554 0.9779121777 -0.1335245246 0.01493921883 0.06425645067
1.81e+10 0.01500218981 0.06441891843 0.9778381166 -0.1338772875 0.977841822 -0.1338776566 0.01499630585 0.06442014985
1.815e+10 0.01505937548 0.06458240022 0.9777675821 -0.1342302316 0.9777713892 -0.1342307999 0.01505350004 0.06458380169
1.82e+10 0.01511666842 0.06474582468 0.9776969704 -0.1345831869 0.9777007792 -0.1345839553 0.01511079158 0.06474738611
1.825e+10 0.01517404947 0.06490919157 0.9776262808 -0.1349360534 0.9776299914 -0.1349370226 0.01516818115 0.06491092306
1.83e+10 0.01523151788 0.06507250145 0.9775554141 -0.135288932 0.9775590263 -0.1352901021 0.01522567816 0.06507439315
1.835e+10 0.01528907351 0.06523576392 0.9774843702 -0.1356418226 0.9774879842 -0.1356431927 0.01528326247 0.06523780583
1.84e+10 0.01534672655 0.06539895909 0.9774132492 -0.1359947245 0.9774167649 -0.1359962956 0.01534095401 0.06540117132
1.845e+10 0.01540446769 0.06556210679 0.9773419502 -0.1363475386 0.9773454676 -0.1363493097 0.01539874383 0.06556446941
1.85e+10 0.01546229618 0.06572519717 0.977270574 -0.1367003639 0.9772739931 -0.1367023359 0.01545662099 0.06572771018
1.855e+10 0.01552021208 0.06588823066 0.9771990207 -0.1370532014 0.9772023415 -0.1370553743 0.01551459557 0.06589089415
1.86e+10 0.01557820571 0.06605121675 0.9771273902 -0.1374060502 0.9771305118 -0.1374083248 0.01557266795 0.06605402089
1.865e+10 0.01563629712 0.06621415604 0.9770554816 -0.1377588121 0.977058605 -0.1377612867 0.01563082812 0.06621710075
1.87e+10 0.01569446589 0.0663770376 0.9769835958 -0.1381115844 0.9769865209 -0.1381142608 0.01568907571 0.06638011297
1.875e+10 0.01575272218 0.06653986282 0.9769114328 -0.1384643698 0.9769142597 -0.1384672472 0.01574742076 0.06654307894
1.88e+10 0.01581105616 0.06670265074 0.9768391927 -0.1388171667 0.9768418203 -0.1388201458 0.01580585367 0.06670598769
1.885e+10 0.01586947759 0.06686538152 0.9767667752 -0.1391699758 0.9767693038 -0.1391730558 0.01586438402 0.0668688394
1.89e+10 0.01592798683 0.06702806513 0.9766942798 -0.1395226963 0.97669661 -0.1395259782 0.01592299217 0.06703164385
1.895e+10 0.01598656385 0.06719071186 0.9766216071 -0.1398754291 0.9766237382 -0.1398788127 0.01598168829 0.06719439159
1.9e+10 0.0160452388 0.06735330155 0.9765487563 -0.1402280743 0.9765507892 -0.1402316589 0.01604048224 0.06735709231
1.905e+10 0.01610398106 0.06751585405 0.9764758291 -0.1405808309 0.976477662 -0.1405844172 0.01609935369 0.06751973591
1.91e+10 0.01616281126 0.06767835991 0.9764027238 -0.1409334999 0.9764043576 -0.140937188 0.01615830306 0.0676823328
1.915e+10 0.01622171886 0.06784082916 0.9763294413 -0.1412861813 0.9763308759 -0.1412899712 0.01621735002 0.06784487325
1.92e+10 0.01628070486 0.06800325169 0.9762559806 -0.141638775 0.976257216 -0.1416426668 0.01627647538 0.06800736698
1.925e+10 0.01633976818 0.06816563677 0.9761824427 -0.1419913803 0.976183479 -0.1419953739 0.01633567805 0.06816982326
1.93e+10 0.01639890903 0.0683279753 0.9761087275 -0.1423439981 0.9761095646 -0.1423480935 0.01639496835 0.0683322231
1.935e+10 0.01645813765 0.06849028692 0.9760349351 -0.1426966275 0.9760354722 -0.1427007256 0.0164543466 0.06849457601
1.94e+10 0.01651743418 0.0686525619 0.9759608645 -0.1430491702 0.9759613025 -0.1430533692 0.01651379276 0.06865689229
1.945e+10 0.01657681875 0.06881479044 0.9758867166 -0.1434017246 0.9758868545 -0.1434059263 0.01657332704 0.06881915214
1.95e+10 0.01663627067 0.06897699203 0.9758123915 -0.1437542915 0.9758123293 -0.1437584951 0.01663294878 0.06898137521
1.955e+10 0.01669581086 0.06913916674 0.9757379883 -0.1441067701 0.975737626 -0.1441109763 0.01669263886 0.06914356122
1.96e+10 0.01675541857 0.06930130498 0.9756633077 -0.1444592621 0.9756628455 -0.1444634693 0.01675240657 0.06930570086
1.965e+10 0.01681511475 0.06946340684 0.9755885489 -0.1448116658 0.9755877866 -0.1448158758 0.01681226274 0.06946780412
1.97e+10 0.01687488788 0.06962548201 0.9755136138 -0.1451641823 0.9755126505 -0.145168294 0.01687219604 0.06962986068
1.975e+10 0.01693473972 0.06978752979 0.9754385996 -0.1455165104 0.9754374363 -0.145520624 0.01693219806 0.06979188977
1.98e+10 0.01699466874 0.06994955228 0.975363309 -0.1458689521 0.9753619447 -0.1458729676 0.01699228744 0.06995387366
1.985e+10 0.0170546756 0.07011154757 0.9752879402 -0.1462213057 0.9752863759 -0.146225323 0.01705244466 0.07011583027
1.99e+10 0.01711477136 0.07027351655 0.9752123932 -0.1465735719 0.9752106279 -0.1465774911 0.01711269087 0.07027775056
1.995e+10 0.01717493403 0.07043546888 0.975136769 -0.1469258501 0.9751347036 -0.146929772 0.0171730142 0.07043963429
2e+10 0.01723518528 0.07059738502 0.9750609674 -0.147278141 0.9750586 -0.1472818656 0.01723340609 0.07060148164
2.005e+10 0.0172955144 0.07075928451 0.9749849876 -0.1476303447 0.9749824192 -0.1476339712 0.01729388586 0.07076331246
2.01e+10 0.01735593095 0.07092116755 0.9749088304 -0.1479825613 0.9749061612 -0.1479860888 0.01735443333 0.07092509662
2.015e+10 0.01741642608 0.07108302485 0.9748324951 -0.1483346908 0.9748296248 -0.1483381201 0.0174150693 0.07108686514
2.02e+10 0.01747699952 0.07124486506 0.9747560815 -0.1486867321 0.9747530102 -0.1486900633 0.01747577377 0.07124859647
2.025e+10 0.01753766004 0.07140668943 0.9746794916 -0.1490388866 0.9746762184 -0.1490420196 0.01753656531 0.07141031197
2.03e+10 0.01759840943 0.07156849724 0.9746027224 -0.1493908538 0.9745993482 -0.1493938878 0.01759742591 0.07157199071
2.035e+10 0.01765923638 0.0717302891 0.9745258769 -0.1497429333 0.9745221998 -0.14974567 0.01765837409 0.0717336536
2.04e+10 0.0177201518 0.07189205405 0.9744488521 -0.1500948256 0.9744450741 -0.1500974633 0.01771939073 0.0718952894
2.045e+10 0.01778115526 0.07205381361 0.9743716501 -0.1504467311 0.97436767 -0.1504491706 0.0177804956 0.0720568998
2.05e+10 0.01784223625 0.07221555683 0.9742942706 -0.1507986496 0.9742901886 -0.15080089 0.01784167801 0.07221849386
2.055e+10 0.01790341556 0.07237729333 0.974216813 -0.1511504804 0.9742126291 -0.1511525217 0.01790293883 0.07238007099
2.06e+10 0.01796468355 0.07253900395 0.974139177 -0.1515022242 0.9741348911 -0.1515040664 0.01796428834 0.07254162227
2.065e+10 0.0180260395 0.07270070835 0.9740614637 -0.1518539803 0.9740569748 -0.1518555244 0.0180257159 0.07270315721
2.07e+10 0.01808749352 0.07286239663 0.973983572 -0.1522056497 0.9739789812 -0.1522069946 0.01808722152 0.07286467585
2.075e+10 0.01814902511 0.07302407918 0.973905503 -0.1525573322 0.9739008102 -0.1525584781 0.01814881483 0.07302617885
2.08e+10 0.01821066567 0.07318575563 0.9738272557 -0.1529089281 0.97382256 -0.1529097739 0.01821048719 0.07318766546
2.085e+10 0.01827239442 0.07334740594 0.97374893 -0.1532604363 0.9737441323 -0.153261083 0.01827224766 0.07334913593
2.09e+10 0.01833421064 0.07350906024 0.9736704269 -0.1536119579 0.9736656273 -0.1536124045 0.01833409578 0.07351059037
2.095e+10 0.01839613605 0.07367068849 0.9735918454 -0.1539633918 0.9735869428 -0.1539635393 0.01839602301 0.07367202849
2.1e+10 0.01845814895 0.07383232077 0.9735130866 -0.1543148392 0.9735081811 -0.1543146866 0.01845803781 0.07383346063
2.105e+10 0.0185202605 0.07399393704 0.9734342494 -0.1546661991 0.9734292409 -0.1546657474 0.01852015128 0.07399487676
2.11e+10 0.01858248015 0.07415554752 0.9733552337 -0.1550174725 0.9733502232 -0.1550168207 0.01858234294 0.07415627679
2.115e+10 0.01864478799 0.07431714201 0.9732760407 -0.1553687593 0.9732711273 -0.1553678065 0.0186446226 0.07431768085
2.12e+10 0.01870720455 0.07447872067 0.9731967691 -0.1557199588 0.9731918527 -0.1557187058 0.01870700107 0.07447905897
2.125e+10 0.01876972915 0.07464030362 0.9731173192 -0.1560710719 0.9731125008 -0.1560696179 0.01876946768 0.07464043116
2.13e+10 0.01883235199 0.07480187076 0.9730377918 -0.1564221976 0.9730329704 -0.1564204435 0.01883203244 0.07480179756
2.135e+10 0.01889508352 0.07496342165 0.9729581859 -0.156773236 0.9729533615 -0.1567711818 0.01889468588 0.07496314751
2.14e+10 0.0189579133 0.07512496729 0.9728783014 -0.157124189 0.9728736752 -0.1571219328 0.01895743759 0.07512449219
2.145e+10 0.01902086132 0.07528649692 0.9727984396 -0.1574751539 0.9727938103 -0.1574725975 0.01902027741 0.07528583057
2.15e+10 0.01908390813 0.07544801076 0.9727183991 -0.1578260325 0.9727138668 -0.1578231749 0.01908322604 0.07544715326
2.155e+10 0.01914707318 0.07560951913 0.9726381801 -0.1581768248 0.9726338459 -0.1581737652 0.0191462629 0.07560847018
2.16e+10 0.01921034707 0.07577101188 0.9725578825 -0.15852753 0.9725536463 -0.1585242694 0.0192094085 0.07576978146
2.165e+10 0.01927372856 0.0759324982 0.9724775074 -0.1588782482 0.9724734693 -0.1588747854 0.01927265182 0.07593107621
2.17e+10 0.01933721861 0.0760939595 0.9723969546 -0.1592289802 0.9723931136 -0.1592252153 0.01933599348 0.07609236585
2.175e+10 0.01940082795 0.07625541529 0.9723163223 -0.1595795251 0.9723125792 -0.1595755592 0.01939944443 0.07625364986
2.18e+10 0.01946454513 0.0764168447 0.9722356123 -0.159930083 0.9722320673 -0.1599259149 0.01946299312 0.0764149174
2.185e+10 0.01952839073 0.07657826939 0.9721547246 -0.160280655 0.9721513767 -0.1602761848 0.01952665022 0.07657618001
2.19e+10 0.01959234528 0.07673966811 0.9720737573 -0.16063104 0.9720706083 -0.1606264677 0.01959041618 0.07673742664
2.195e+10 0.01965640828 0.07690105145 0.9719926122 -0.160981439 0.9719897613 -0.1609766635 0.01965429049 0.0768986679
2.2e+10 0.01972059928 0.07706240922 0.9719114894 -0.1613318502 0.9719087365 -0.1613268736 0.01971827269 0.07705989338
2.205e+10 0.01978490926 0.0772237517 0.9718300878 -0.1616821765 0.971827733 -0.1616769958 0.01978236376 0.07722111346
2.21e+10 0.01984933817 0.0773850784 0.9717487075 -0.162032415 0.9717465507 -0.162027032 0.01984656376 0.07738231765
2.215e+10 0.01991387529 0.07754636989 0.9716671483 -0.1623825675 0.9716652916 -0.1623771816 0.01991088177 0.07754350674
2.22e+10 0.01997854128 0.07770764525 0.9715856114 -0.1627327324 0.9715839528 -0.1627271442 0.01997530855 0.07770468949
2.225e+10 0.02004333551 0.07786889619 0.9715037965 -0.1630829126 0.971502536 -0.1630771202 0.02003984354 0.0778658476
2.23e+10 0.02010823882 0.07803012133 0.9714220019 -0.1634329049 0.9714209414 -0.1634271105 0.02010450743 0.07802700013
2.235e+10 0.02017327033 0.07819131107 0.9713400302 -0.1637830117 0.9713393679 -0.163777013 0.02016927939 0.07818812704
2.24e+10 0.02023842095 0.07835247517 0.9712580788 -0.1641329307 0.9712576164 -0.1641269299 0.02023417028 0.07834924832
2.245e+10 0.02030369978 0.07851361444 0.9711759493 -0.1644828641 0.9711757871 -0.1644768601 0.02029916935 0.07851034455
2.25e+10 0.02036909744 0.0786747187 0.9710936418 -0.164832812 0.9710938787 -0.1648267038 0.02036429704 0.07867142588
2.255e+10 0.02043462378 0.07883578707 0.9710113553 -0.1651826722 0.9710118924 -0.1651765609 0.02042954331 0.07883248121
2.26e+10 0.02050026948 0.07899683093 0.9709288898 -0.1655324469 0.9709297269 -0.1655263324 0.02049491883 0.07899352213
2.265e+10 0.02056603338 0.07915782839 0.9708464462 -0.165882234 0.9708475835 -0.1658761163 0.02056040234 0.07915453655
2.27e+10 0.02063192575 0.07931879166 0.9707638245 -0.1662320357 0.9707652619 -0.1662259149 0.02062601421 0.07931552677
2.275e+10 0.02069793745 0.07947971945 0.9706811237 -0.1665817509 0.9706828612 -0.1665756268 0.02069174531 0.07947649152
2.28e+10 0.02076407811 0.07964060197 0.9705982436 -0.1669313806 0.9706004825 -0.1669253513 0.02075760514 0.079637431
2.285e+10 0.02083033728 0.07980143974 0.9705153854 -0.1672810228 0.9705178254 -0.1672750914 0.02082358338 0.07979833573
2.29e+10 0.02089672481 0.0799622424 0.970432349 -0.1676306798 0.9704351903 -0.1676248442 0.02088968976 0.07995922534
2.295e+10 0.02096323175 0.08012299913 0.9703493334 -0.1679802492 0.9703524759 -0.1679745105 0.02095592545 0.08012007914
2.3e+10 0.02102985735 0.08028371173 0.9702661395 -0.1683298334 0.9702695832 -0.1683241914 0.02102227969 0.0802808988
2.305e+10 0.02109661208 0.08044436917 0.9701828662 -0.1686793311 0.9701866122 -0.1686738861 0.02108876284 0.08044168331
2.31e+10 0.02116348521 0.08060499149 0.9700995147 -0.1690288425 0.9701035629 -0.1690235943 0.02115536438 0.08060243267
2.315e+10 0.02123047707 0.08076554867 0.9700160848 -0.1693783677 0.9700204354 -0.1693733163 0.02122209422 0.08076315704
2.32e+10 0.02129758809 0.08092606119 0.9699324765 -0.1697279076 0.9699372284 -0.1697229519 0.02128895322 0.08092383685
2.325e+10 0.02136481818 0.08108652857 0.9698488888 -0.1700773601 0.9698538429 -0.1700726024 0.02135594129 0.0810844716
2.33e+10 0.02143217768 0.08124693143 0.9697651216 -0.1704267274 0.969770379 -0.1704222666 0.02142304843 0.08124507176
2.335e+10 0.02149964532 0.08140727926 0.9696812769 -0.1707762085 0.9696868367 -0.1707719446 0.02149029363 0.08140562719
2.34e+10 0.02156723218 0.08156758254 0.9695973528 -0.1711256034 0.9696031159 -0.1711216374 0.02155765803 0.08156613807
2.345e+10 0.02163493797 0.08172781082 0.96951335 -0.171475012 0.9695193165 -0.1714713439 0.02162514102 0.08172660398
2.35e+10 0.02170275247 0.0818879946 0.9694291688 -0.1718244355 0.9694354387 -0.1718210643 0.02169275272 0.08188702559
2.355e+10 0.02177068572 0.0820481129 0.969345009 -0.1721738717 0.9693514823 -0.1721707985 0.02176049307 0.08204739183
2.36e+10 0.0218387391 0.08220816719 0.9692606694 -0.1725232229 0.9692673462 -0.1725204476 0.02182836333 0.08220771418
2.365e+10 0.0219069007 0.08236816659 0.9691762513 -0.1728725879 0.9691831326 -0.1728702106 0.02189635181 0.08236798175
2.37e+10 0.02197517203 0.08252809201 0.9690916544 -0.1732219678 0.9690987391 -0.1732198885 0.02196446979 0.08252819556
2.375e+10 0.02204355142 0.0826879615 0.9690070789 -0.1735713604 0.9690143682 -0.1735696791 0.02203270584 0.08268835355
2.38e+10 0.02211204056 0.0828477676 0.9689223247 -0.173920768 0.9689297173 -0.1739193858 0.02210106152 0.08284845827
2.385e+10 0.02218063928 0.08300749871 0.9688374906 -0.1742700895 0.9688449877 -0.1742691063 0.02216954657 0.08300850823
2.39e+10 0.02224934586 0.08316716515 0.9687525789 -0.1746195249 0.9687601805 -0.1746189409 0.02223814947 0.08316849362
2.395e+10 0.02231815257 0.08332677754 0.9686674873 -0.1749688753 0.9686751934 -0.1749686903 0.0223068725 0.08332842519
2.4e+10 0.02238706783 0.08348630465 0.9685824168 -0.1753182384 0.9685901285 -0.1753185538 0.02237572398 0.0834882817
2.405e+10 0.02245608281 0.0836457784 0.9684970675 -0.1756676177 0.9685048838 -0.1756683321 0.02244468516 0.08364808497
2.41e+10 0.02252519635 0.08380516681 0.9684117405 -0.1760171098 0.9684195601 -0.1760181244 0.0225137647 0.08380782314
2.415e+10 0.02259441901 0.08396450159 0.9683262335 -0.176366517 0.9683340587 -0.1763680319 0.02258296346 0.08396749778
2.42e+10 0.02266373154 0.08412376243 0.9682405474 -0.1767159392 0.9682483772 -0.1767178542 0.0226522821 0.08412709881
2.425e+10 0.02273314313 0.08428294789 0.9681548826 -0.1770653742 0.9681626168 -0.1770676906 0.02272170969 0.08428663459
2.43e+10 0.02280264352 0.08444207023 0.9680689387 -0.1774148253 0.9680766785 -0.177417642 0.02279124607 0.08444610748
2.435e+10 0.02287225365 0.08460111782 0.9679830159 -0.1777642893 0.9679905601 -0.1777675085 0.0228609022 0.08460550573
2.44e+10 0.02294194317 0.08476009156 0.9678968139 -0.1781137695 0.9679043627 -0.1781173889 0.02293066773 0.08476483047
2.445e+10 0.02301173124 0.08491900069 0.9678106331 -0.1784632625 0.9678179874 -0.1784673846 0.02300054191 0.08492408072
2.45e+10 0.02308159917 0.08507784594 0.9677242733 -0.1788127706 0.967731432 -0.1788172952 0.02307052597 0.08508326743
2.455e+10 0.02315156655 0.08523661764 0.9676377343 -0.1791622939 0.9676446975 -0.1791672209 0.02314060946 0.08524238059
2.46e+10 0.02322161328 0.08539531504 0.9675510161 -0.1795118322 0.9675578839 -0.1795171606 0.02321081244 0.08540140991
2.465e+10 0.02329174937 0.08555394884 0.9674642191 -0.1798613845 0.9674707912 -0.1798671166 0.02328110478 0.08556037564
2.47e+10 0.02336197475 0.08571250795 0.9673773428 -0.1802109509 0.9673836194 -0.1802170866 0.02335151653 0.08571925701
2.475e+10 0.02343226961 0.08587100385 0.9672901874 -0.1805605334 0.9672962685 -0.1805670717 0.02342201787 0.08587806541
2.48e+10 0.02350266379 0.08602943579 0.9672029529 -0.18091013 0.9672087385 -0.180917072 0.02349261864 0.08603679985
2.485e+10 0.02357312749 0.086187794 0.9671155393 -0.1812597416 0.9671210293 -0.1812670874 0.02356331895 0.08619546092
2.49e+10 0.02364367062 0.08634608865 0.9670280465 -0.1816093674 0.9670330407 -0.1816171192 0.02363411893 0.08635403864
2.495e+10 0.02371429321 0.08650431975 0.9669402756 -0.1819591095 0.966944972 -0.1819670648 0.02370500848 0.08651254293
2.5e+10 0.02378499561 0.08666249668 0.9668524246 -0.1823087655 0.9668567242 -0.1823170257 0.02377599809 0.08667097327
2.505e+10 0.02385576703 0.08682060009 0.9667643942 -0.1826584367 0.9667682982 -0.1826671019 0.02384707684 0.08682932034
2.51e+10 0.02392661853 0.08697863994 0.9666761847 -0.1830081232 0.966679692 -0.1830170932 0.02391824567 0.08698760396
2.515e+10 0.0239975401 0.08713662671 0.966587796 -0.1833578248 0.9665908053 -0.1833670007 0.02398950493 0.08714580474
2.52e+10 0.02406854052 0.08729454961 0.9664992279 -0.1837075416 0.9665018405 -0.1837170225 0.02406085328 0.08730392175
2.525e+10 0.02413961117 0.08745240948 0.9664104808 -0.1840572737 0.9664125953 -0.1840669605 0.02413228186 0.08746197586
2.53e+10 0.02421076058 0.08761022613 0.9663215555 -0.1844071211 0.966323171 -0.1844169139 0.02420379968 0.08761994684
2.535e+10 0.02428197072 0.08776797901 0.9662324487 -0.1847567836 0.9662335673 -0.1847668825 0.02427539834 0.0877778443
2.54e+10 0.02435326034 0.0879256786 0.9661431639 -0.1851065615 0.9661437834 -0.1851167663 0.02434708663 0.08793567859
2.545e+10 0.02442461956 0.0880833254 0.9660536997 -0.1854563546 0.96605372 -0.1854666666 0.02441884486 0.08809343007
2.55e+10 0.02449604807 0.08824092827 0.9659640565 -0.1858061631 0.9659635776 -0.1858165811 0.02449069263 0.08825111787
2.555e+10 0.02456754761 0.08839846877 0.9658742327 -0.1861558867 0.9658730545 -0.1861664131 0.02456261166 0.08840872328
2.56e+10 0.02463911588 0.0885559761 0.9657841309 -0.1865057271 0.9657824524 -0.1865162594 0.02463460979 0.08856626563
2.565e+10 0.0247107444 0.08871343052 0.9656938486 -0.1868554825 0.9656915709 -0.1868661221 0.0247066783 0.0887237452
2.57e+10 0.02478245333 0.08887085104 0.9656033872 -0.1872052535 0.965600608 -0.187215799 0.0247788277 0.08888115085
2.575e+10 0.0248542315 0.08902821964 0.9655127465 -0.1875550399 0.9655092668 -0.1875655938 0.02485105646 0.08903849469
2.58e+10 0.02492607951 0.08918556497 0.9654218265 -0.1879048429 0.9654178452 -0.1879153027 0.0249233459 0.0891957451
2.585e+10 0.0249979988 0.08934282749 0.9653307262 -0.1882545612 0.9653261433 -0.1882649282 0.02499571544 0.08935301294
2.59e+10 0.02506998762 0.08950010743 0.9652394464 -0.188604295 0.9652341605 -0.1886144702 0.02506815689 0.08951009801
2.595e+10 0.02514204647 0.08965730424 0.9651478874 -0.1889540455 0.9651420988 -0.1889640266 0.02514066719 0.08966720007
2.6e+10 0.02521418488 0.08981451866 0.9650561488 -0.1893037117 0.9650497586 -0.1893136 0.02521324706 0.08982431963
2.605e+10 0.02528639418 0.08997165107 0.964964131 -0.1896534944 0.9649571356 -0.1896629896 0.025285889 0.08998125699
2.61e+10 0.02535867355 0.09012880033 0.9648719324 -0.1900030927 0.964864334 -0.1900123951 0.02535861104 0.09013821132
2.615e+10 0.02543103136 0.0902859675 0.9647794558 -0.190352808 0.9647713534 -0.1903618162 0.02543139271 0.09029508324
2.62e+10 0.02550346178 0.09044305183 0.964686797 -0.1907023387 0.9646780906 -0.190711054 0.02550425702 0.09045187245
2.625e+10 0.02557598177 0.09060005355 0.9645939604 -0.1910519852 0.9645846486 -0.1910603075 0.02557717968 0.09060867882
2.63e+10 0.02564857263 0.0907570727 0.9645008433 -0.1914015485 0.9644910251 -0.1914093766 0.02565017442 0.09076540252
2.635e+10 0.0257212433 0.09091411026 0.9644074457 -0.1917510287 0.9643971222 -0.1917584626 0.02572323018 0.0909220443
2.64e+10 0.02579399417 0.09107116494 0.9643138684 -0.1921004248 0.9643030396 -0.1921074646 0.02579636615 0.09107870321
2.645e+10 0.02586683552 0.09122813823 0.9642200123 -0.1924499379 0.9642086758 -0.1924563834 0.02586956259 0.09123528037
2.65e+10 0.02593975759 0.09138512797 0.9641259753 -0.1927992669 0.9641142323 -0.1928052169 0.02594282976 0.09139187388
2.655e+10 0.02601277029 0.09154203698 0.9640316582 -0.1931486129 0.9640194087 -0.1931540686 0.02601616757 0.09154838642
2.66e+10 0.02608587389 0.09169896323 0.9639370612 -0.1934978761 0.9639245041 -0.1935027351 0.02608957626 0.09170491597
2.665e+10 0.02615906792 0.09185590747 0.9638422838 -0.1938470552 0.9638293189 -0.1938513188 0.02616305661 0.09186136316
2.67e+10 0.0262323618 0.09201286997 0.9637473276 -0.1941962507 0.9637338536 -0.1941998198 0.02623661681 0.09201782838
2.675e+10 0.02630574676 0.09216985041 0.9636519894 -0.1945452644 0.9636383079 -0.1945482356 0.0263102393 0.09217421106
2.68e+10 0.02637923283 0.09232674906 0.963556472 -0.1948942943 0.9635424815 -0.1948965687 0.02638394169 0.09233061183
2.685e+10 0.02645282945 0.09248366607 0.9634607739 -0.1952432404 0.9634463743 -0.1952448192 0.02645772583 0.09248693047
2.69e+10 0.0265265172 0.0926406011 0.9633646956 -0.1955921052 0.963350186 -0.1955928846 0.02653158112 0.09264326689
2.695e+10 0.02660032617 0.09279745468 0.9632684367 -0.1959408862 0.9632537182 -0.1959409676 0.02660551637 0.09279962148
2.7e+10 0.02667423498 0.09295442597 0.9631719977 -0.1962895837 0.963157069 -0.1962888669 0.02667953393 0.0929558933
2.705e+10 0.02674826566 0.09311131573 0.9630752786 -0.1966381988 0.9630602397 -0.1966366827 0.02675363087 0.09311228334
2.71e+10 0.0268224071 0.09326822463 0.962978278 -0.1969867315 0.962963129 -0.196984416 0.02682782105 0.09326849203
2.715e+10 0.02689666897 0.09342515096 0.9628810979 -0.1973351809 0.9628659389 -0.1973320647 0.0269020904 0.09342481776
2.72e+10 0.02697105227 0.09358209647 0.9627836369 -0.197683548 0.9627684665 -0.1976795311 0.02697645241 0.09358106218
2.725e+10 0.02704555816 0.09373896047 0.9626858938 -0.1980317328 0.9626708134 -0.198026914 0.02705090576 0.09373732482
2.73e+10 0.02712020281 0.0938959431 0.9625879724 -0.1983799347 0.9625729807 -0.1983742139 0.0271254491 0.09389360534
2.735e+10 0.0271949701 0.09405284427 0.9624898689 -0.1987279531 0.9624748669 -0.1987214316 0.02720009381 0.09404990426
2.74e+10 0.02726987807 0.09420976389 0.9623914843 -0.1990758896 0.9623766724 -0.1990685649 0.02727483043 0.09420612087
2.745e+10 0.02734492748 0.09436670248 0.96229282 -0.1994237444 0.9622782969 -0.1994155151 0.02734966722 0.09436245605
2.75e+10 0.02742010836 0.09452365995 0.9621939735 -0.1997714159 0.9621796404 -0.1997623835 0.02742461674 0.09451870973
2.755e+10 0.02749544062 0.09468063595 0.9620948466 -0.2001190059 0.9620809023 -0.2001090676 0.02749967761 0.09467498143
2.76e+10 0.02757092304 0.09483763078 0.9619955393 -0.200466513 0.9619819851 -0.2004557689 0.0275748386 0.09483127129
2.765e+10 0.0276465589 0.09499454458 0.9618960497 -0.2008138372 0.9618827855 -0.2008022885 0.02765012177 0.09498757985
2.77e+10 0.02772234558 0.09515147713 0.9617962796 -0.2011610798 0.9617835055 -0.201148724 0.02772551573 0.09514390663
2.775e+10 0.02779830389 0.09530842923 0.9616962288 -0.2015082413 0.9616840438 -0.201494977 0.02780104129 0.09530025243
2.78e+10 0.02787441295 0.0954653995 0.9615960965 -0.2018552186 0.9615844028 -0.2018412473 0.02787667757 0.09545661587
2.785e+10 0.02795068366 0.09562238925 0.9614956836 -0.2022021148 0.9614845801 -0.202187335 0.02795244549 0.09561299838
2.79e+10 0.02802712734 0.09577929852 0.9613949874 -0.2025488294 0.9613845755 -0.20253334 0.02802834635 0.09576929987
2.795e+10 0.02810375238 0.09593622567 0.9612942114 -0.2028954607 0.9612844897 -0.2028791615 0.02810438726 0.09592571883
2.8e+10 0.02818053851 0.09609317252 0.9611931534 -0.2032419108 0.9611842247 -0.2032250007 0.02818055924 0.09608215706
2.805e+10 0.02825751631 0.09625013872 0.9610919141 -0.2035882786 0.961083777 -0.2035706575 0.02825687413 0.09623851386
2.81e+10 0.02833466705 0.09640702391 0.9609904929 -0.2039344641 0.9609831487 -0.2039162321 0.02833333938 0.0963949896
2.815e+10 0.02841199886 0.09656392852 0.9608887903 -0.2042805687 0.9608824392 -0.2042617231 0.02840994695 0.09655138409
2.82e+10 0.02848952177 0.09672085269 0.9607870076 -0.2046265903 0.9607814494 -0.2046071336 0.0284867143 0.09670789785
2.825e+10 0.02856723746 0.09687769493 0.9606850423 -0.2049724297 0.9606804784 -0.2049524595 0.02856363311 0.09686442925
2.83e+10 0.02864513518 0.09703455783 0.9605827941 -0.2053180883 0.9605792259 -0.2052977046 0.02864072524 0.09702088101
2.835e+10 0.02872323382 0.09719143923 0.9604804659 -0.2056636639 0.9604778933 -0.2056428668 0.02871797694 0.09717745085
2.84e+10 0.02880153625 0.09734824007 0.9603778541 -0.2060090588 0.9603764775 -0.2059878456 0.02879539238 0.09733393957
2.845e+10 0.02888002924 0.09750506077 0.9602751622 -0.2063543709 0.9602747825 -0.2063328442 0.02887298708 0.0974905481
2.85e+10 0.02895872451 0.09766179994 0.9601722881 -0.2066996012 0.9601731056 -0.2066777583 0.02895075402 0.09764707467
2.855e+10 0.02903762183 0.09781855953 0.9600692318 -0.2070446498 0.9600711476 -0.2070225922 0.02902870299 0.09780362137
2.86e+10 0.02911672226 0.09797523817 0.9599659931 -0.2073895169 0.9599691088 -0.2073673433 0.02910683242 0.09796028707
2.865e+10 0.02919603324 0.09813193641 0.9598625729 -0.2077343025 0.9598669898 -0.2077121118 0.02918515368 0.09811687193
2.87e+10 0.02927554738 0.09828855374 0.959759071 -0.2080790053 0.9597646877 -0.2080566985 0.02926366677 0.09827347584
2.875e+10 0.02935527407 0.09844509047 0.9596553861 -0.2084235267 0.9596623055 -0.2084013027 0.02934237106 0.09843009897
2.88e+10 0.02943521202 0.09860164674 0.9595516203 -0.2087679655 0.9595597421 -0.2087458256 0.02942127658 0.09858674149
2.885e+10 0.02951535205 0.09875812314 0.9594476721 -0.2091123229 0.9594569976 -0.2090903672 0.02950038417 0.09874330407
2.89e+10 0.02959571588 0.09891451821 0.9593435413 -0.2094564993 0.959354271 -0.209434725 0.02957970289 0.09889998543
2.895e+10 0.0296762792 0.09907093387 0.9592393302 -0.2098006931 0.959251265 -0.209779203 0.02965921239 0.09905658706
2.9e+10 0.02975705702 0.099227268 0.9591349346 -0.2101446056 0.9591482762 -0.2101234972 0.02973894507 0.09921320738
2.905e+10 0.02983805573 0.09938352291 0.9590304585 -0.2104885358 0.959045008 -0.2104679118 0.02981888726 0.09936984844
2.91e+10 0.029919257 0.09953969663 0.9589257998 -0.210832385 0.9589417575 -0.2108122426 0.02989905202 0.09952640854
2.915e+10 0.03000067169 0.09969578984 0.9588211582 -0.2111760502 0.9588382249 -0.2111564936 0.02997942883 0.09968298823
2.92e+10 0.03008229848 0.09985180284 0.9587162344 -0.211519636 0.9587347121 -0.2115007613 0.03006003642 0.09983958808
2.925e+10 0.0301641274 0.1000077355 0.9586113289 -0.2118631381 0.9586309184 -0.2118450492 0.03014085478 0.09999620785
2.93e+10 0.03024617635 0.1001636879 0.9585062427 -0.2122066595 0.9585271444 -0.2121893539 0.03022190448 0.1001527472
2.935e+10 0.03032842012 0.1003194594 0.9584010719 -0.2125499983 0.9584231871 -0.2125335773 0.03030317766 0.1003092062
2.94e+10 0.0304108761 0.1004751508 0.9582958191 -0.2128932549 0.958319049 -0.21287782 0.0303846817 0.1004656856
2.945e+10 0.03049353363 0.1006307622 0.9581903857 -0.2132365309 0.9582148304 -0.2132220807 0.03046641595 0.1006221854
2.95e+10 0.03057638325 0.1007862926 0.9580849697 -0.2135797232 0.9581104305 -0.2135663605 0.03054838229 0.1007786047
2.955e+10 0.03065944528 0.1009417437 0.9579793708 -0.2139228347 0.958005849 -0.2139106596 0.03063058102 0.100934945
2.96e+10 0.03074268942 0.1010971138 0.95787369 -0.214265864 0.957901187 -0.2142549766 0.03071301054 0.101091305
2.965e+10 0.03082613574 0.1012523033 0.9577679271 -0.2146089112 0.9577964444 -0.2145994116 0.03079568089 0.1012475851
2.97e+10 0.03090976503 0.1014074123 0.9576620821 -0.2149518762 0.9576915196 -0.2149437657 0.03087857286 0.1014038854
2.975e+10 0.03099358599 0.1015624413 0.9575561558 -0.2152948592 0.9575864133 -0.2152881392 0.03096170651 0.1015601063
2.98e+10 0.03107757861 0.1017173901 0.957450146 -0.2156377597 0.9574811263 -0.2156326318 0.03104507321 0.1017161477
2.985e+10 0.03116175413 0.101872158 0.9573440554 -0.2159806783 0.9573757585 -0.2159771424 0.03112866875 0.1018723093
2.99e+10 0.03124611138 0.1020268458 0.9572378827 -0.2163236147 0.9572702086 -0.2163216722 0.03121248736 0.1020282912
2.995e+10 0.03133063101 0.1021814532 0.9571316272 -0.2166664688 0.9571644771 -0.2166662212 0.03129654842 0.1021841937
3e+10 0.03141531291 0.1023358797 0.9570252896 -0.2170093405 0.957058665 -0.217010888 0.0313808304 0.1023400163
