#   Hz   S  RI   R   50
!
0.000000e+00 2.723257e-03 0.000000e+00 9.964410e-01 0.000000e+00 9.964577e-01 0.000000e+00 2.710383e-03 0.000000e+00
5.000000e+07 2.722987e-03 1.972346e-04 9.964400e-01 -4.657568e-04 9.964567e-01 -4.666246e-04 2.710133e-03 1.979133e-04
1.000000e+08 2.722179e-03 3.945067e-04 9.964370e-01 -9.314438e-04 9.964536e-01 -9.331765e-04 2.709381e-03 3.958618e-04
1.500000e+08 2.720836e-03 5.918536e-04 9.964319e-01 -1.396991e-03 9.964484e-01 -1.399583e-03 2.708132e-03 5.938807e-04
2.000000e+08 2.718962e-03 7.893124e-04 9.964249e-01 -1.862330e-03 9.964412e-01 -1.865773e-03 2.706390e-03 7.920048e-04
2.500000e+08 2.716565e-03 9.869199e-04 9.964158e-01 -2.327391e-03 9.964319e-01 -2.331673e-03 2.704162e-03 9.902688e-04
3.000000e+08 2.713655e-03 1.184712e-03 9.964048e-01 -2.792106e-03 9.964206e-01 -2.797214e-03 2.701457e-03 1.188707e-03
3.500000e+08 2.710243e-03 1.382725e-03 9.963918e-01 -3.256409e-03 9.964073e-01 -3.262325e-03 2.698285e-03 1.387352e-03
4.000000e+08 2.706342e-03 1.580994e-03 9.963768e-01 -3.720232e-03 9.963920e-01 -3.726938e-03 2.694658e-03 1.586238e-03
4.500000e+08 2.701967e-03 1.779553e-03 9.963600e-01 -4.183512e-03 9.963747e-01 -4.190985e-03 2.690592e-03 1.785397e-03
5.000000e+08 2.697135e-03 1.978434e-03 9.963412e-01 -4.646184e-03 9.963555e-01 -4.654401e-03 2.686101e-03 1.984860e-03
5.500000e+08 2.691865e-03 2.177671e-03 9.963205e-01 -5.108187e-03 9.963344e-01 -5.117121e-03 2.681203e-03 2.184657e-03
6.000000e+08 2.686178e-03 2.377294e-03 9.962981e-01 -5.569460e-03 9.963114e-01 -5.579082e-03 2.675918e-03 2.384819e-03
6.500000e+08 2.680095e-03 2.577334e-03 9.962738e-01 -6.029944e-03 9.962866e-01 -6.040223e-03 2.670266e-03 2.585372e-03
7.000000e+08 2.673641e-03 2.777819e-03 9.962477e-01 -6.489584e-03 9.962599e-01 -6.500487e-03 2.664269e-03 2.786345e-03
7.500000e+08 2.666841e-03 2.978776e-03 9.962200e-01 -6.948324e-03 9.962315e-01 -6.959816e-03 2.657951e-03 2.987763e-03
8.000000e+08 2.659720e-03 3.180231e-03 9.961905e-01 -7.406112e-03 9.962014e-01 -7.418157e-03 2.651337e-03 3.189650e-03
8.500000e+08 2.652308e-03 3.382209e-03 9.961594e-01 -7.862898e-03 9.961696e-01 -7.875458e-03 2.644452e-03 3.392030e-03
9.000000e+08 2.644632e-03 3.584732e-03 9.961267e-01 -8.318635e-03 9.961362e-01 -8.331670e-03 2.637325e-03 3.594924e-03
9.500000e+08 2.636724e-03 3.787821e-03 9.960924e-01 -8.773277e-03 9.961012e-01 -8.786745e-03 2.629983e-03 3.798353e-03
1.000000e+09 2.628614e-03 3.991496e-03 9.960566e-01 -9.226781e-03 9.960647e-01 -9.240642e-03 2.622456e-03 4.002334e-03
1.050000e+09 2.620335e-03 4.195775e-03 9.960194e-01 -9.679108e-03 9.960267e-01 -9.693317e-03 2.614773e-03 4.206886e-03
1.100000e+09 2.611919e-03 4.400674e-03 9.959808e-01 -1.013022e-02 9.959873e-01 -1.014473e-02 2.606966e-03 4.412023e-03
1.150000e+09 2.603400e-03 4.606206e-03 9.959408e-01 -1.058008e-02 9.959465e-01 -1.059486e-02 2.599065e-03 4.617759e-03
1.200000e+09 2.594811e-03 4.812385e-03 9.958995e-01 -1.102866e-02 9.959045e-01 -1.104365e-02 2.591103e-03 4.824105e-03
1.250000e+09 2.586187e-03 5.019220e-03 9.958570e-01 -1.147593e-02 9.958611e-01 -1.149109e-02 2.583112e-03 5.031074e-03
1.300000e+09 2.577564e-03 5.226721e-03 9.958133e-01 -1.192187e-02 9.958166e-01 -1.193715e-02 2.575125e-03 5.238672e-03
1.350000e+09 2.568976e-03 5.434895e-03 9.957684e-01 -1.236644e-02 9.957709e-01 -1.238180e-02 2.567175e-03 5.446907e-03
1.400000e+09 2.560458e-03 5.643746e-03 9.957225e-01 -1.280963e-02 9.957242e-01 -1.282503e-02 2.559295e-03 5.655785e-03
1.450000e+09 2.552045e-03 5.853278e-03 9.956755e-01 -1.325142e-02 9.956764e-01 -1.326681e-02 2.551518e-03 5.865308e-03
1.500000e+09 2.543774e-03 6.063493e-03 9.956276e-01 -1.369180e-02 9.956277e-01 -1.370714e-02 2.543877e-03 6.075479e-03
1.550000e+09 2.535677e-03 6.274391e-03 9.955788e-01 -1.413076e-02 9.955780e-01 -1.414599e-02 2.536406e-03 6.286298e-03
1.600000e+09 2.527792e-03 6.485968e-03 9.955291e-01 -1.456827e-02 9.955276e-01 -1.458336e-02 2.529137e-03 6.497764e-03
1.650000e+09 2.520150e-03 6.698223e-03 9.954786e-01 -1.500435e-02 9.954763e-01 -1.501925e-02 2.522102e-03 6.709873e-03
1.700000e+09 2.512787e-03 6.911148e-03 9.954274e-01 -1.543898e-02 9.954243e-01 -1.545366e-02 2.515333e-03 6.922622e-03
1.750000e+09 2.505736e-03 7.124739e-03 9.953755e-01 -1.587216e-02 9.953716e-01 -1.588657e-02 2.508863e-03 7.136003e-03
1.800000e+09 2.499030e-03 7.338985e-03 9.953229e-01 -1.630389e-02 9.953184e-01 -1.631800e-02 2.502721e-03 7.350011e-03
1.850000e+09 2.492699e-03 7.553877e-03 9.952698e-01 -1.673418e-02 9.952645e-01 -1.674794e-02 2.496939e-03 7.564635e-03
1.900000e+09 2.486776e-03 7.769404e-03 9.952162e-01 -1.716303e-02 9.952102e-01 -1.717641e-02 2.491546e-03 7.779865e-03
1.950000e+09 2.481291e-03 7.985552e-03 9.951621e-01 -1.759045e-02 9.951554e-01 -1.760342e-02 2.486571e-03 7.995691e-03
2.000000e+09 2.476273e-03 8.202308e-03 9.951075e-01 -1.801645e-02 9.951003e-01 -1.802897e-02 2.482041e-03 8.212098e-03
2.050000e+09 2.471751e-03 8.419656e-03 9.950526e-01 -1.844104e-02 9.950447e-01 -1.845309e-02 2.477984e-03 8.429073e-03
2.100000e+09 2.467751e-03 8.637579e-03 9.949973e-01 -1.886424e-02 9.949889e-01 -1.887578e-02 2.474427e-03 8.646601e-03
2.150000e+09 2.464301e-03 8.856060e-03 9.949418e-01 -1.928606e-02 9.949329e-01 -1.929707e-02 2.471393e-03 8.864666e-03
2.200000e+09 2.461424e-03 9.075080e-03 9.948861e-01 -1.970652e-02 9.948766e-01 -1.971698e-02 2.468908e-03 9.083250e-03
2.250000e+09 2.459146e-03 9.294618e-03 9.948301e-01 -2.012565e-02 9.948202e-01 -2.013553e-02 2.466995e-03 9.302334e-03
2.300000e+09 2.457489e-03 9.514654e-03 9.947740e-01 -2.054346e-02 9.947636e-01 -2.055273e-02 2.465674e-03 9.521901e-03
2.350000e+09 2.456474e-03 9.735167e-03 9.947178e-01 -2.095997e-02 9.947070e-01 -2.096863e-02 2.464968e-03 9.741929e-03
2.400000e+09 2.456122e-03 9.956134e-03 9.946616e-01 -2.137522e-02 9.946504e-01 -2.138324e-02 2.464896e-03 9.962399e-03
2.450000e+09 2.456451e-03 1.017753e-02 9.946053e-01 -2.178922e-02 9.945938e-01 -2.179659e-02 2.465476e-03 1.018329e-02
2.500000e+09 2.457479e-03 1.039934e-02 9.945490e-01 -2.220201e-02 9.945372e-01 -2.220871e-02 2.466725e-03 1.040458e-02
2.550000e+09 2.459222e-03 1.062153e-02 9.944927e-01 -2.261361e-02 9.944807e-01 -2.261964e-02 2.468660e-03 1.062624e-02
2.600000e+09 2.461695e-03 1.084408e-02 9.944366e-01 -2.302405e-02 9.944243e-01 -2.302940e-02 2.471294e-03 1.084826e-02
2.650000e+09 2.464912e-03 1.106696e-02 9.943805e-01 -2.343336e-02 9.943681e-01 -2.343803e-02 2.474643e-03 1.107060e-02
2.700000e+09 2.468885e-03 1.129015e-02 9.943246e-01 -2.384158e-02 9.943120e-01 -2.384555e-02 2.478717e-03 1.129325e-02
2.750000e+09 2.473625e-03 1.151362e-02 9.942688e-01 -2.424873e-02 9.942561e-01 -2.425201e-02 2.483528e-03 1.151619e-02
2.800000e+09 2.479142e-03 1.173735e-02 9.942132e-01 -2.465484e-02 9.942005e-01 -2.465744e-02 2.489086e-03 1.173938e-02
2.850000e+09 2.485442e-03 1.196131e-02 9.941578e-01 -2.505996e-02 9.941451e-01 -2.506186e-02 2.495399e-03 1.196280e-02
2.900000e+09 2.492535e-03 1.218548e-02 9.941027e-01 -2.546411e-02 9.940900e-01 -2.546533e-02 2.502474e-03 1.218644e-02
2.950000e+09 2.500425e-03 1.240983e-02 9.940478e-01 -2.586733e-02 9.940351e-01 -2.586787e-02 2.510319e-03 1.241026e-02
3.000000e+09 2.509116e-03 1.263433e-02 9.939932e-01 -2.626965e-02 9.939806e-01 -2.626952e-02 2.518937e-03 1.263424e-02
3.050000e+09 2.518612e-03 1.285896e-02 9.939389e-01 -2.667110e-02 9.939264e-01 -2.667032e-02 2.528333e-03 1.285836e-02
3.100000e+09 2.528915e-03 1.308369e-02 9.938848e-01 -2.707172e-02 9.938725e-01 -2.707029e-02 2.538508e-03 1.308259e-02
3.150000e+09 2.540026e-03 1.330850e-02 9.938311e-01 -2.747154e-02 9.938190e-01 -2.746949e-02 2.549466e-03 1.330690e-02
3.200000e+09 2.551943e-03 1.353336e-02 9.937778e-01 -2.787061e-02 9.937658e-01 -2.786793e-02 2.561205e-03 1.353129e-02
3.250000e+09 2.564666e-03 1.375825e-02 9.937247e-01 -2.826894e-02 9.937130e-01 -2.826567e-02 2.573726e-03 1.375571e-02
3.300000e+09 2.578193e-03 1.398315e-02 9.936720e-01 -2.866657e-02 9.936606e-01 -2.866272e-02 2.587028e-03 1.398016e-02
3.350000e+09 2.592518e-03 1.420802e-02 9.936197e-01 -2.906355e-02 9.936086e-01 -2.905914e-02 2.601106e-03 1.420460e-02
3.400000e+09 2.607638e-03 1.443286e-02 9.935677e-01 -2.945989e-02 9.935569e-01 -2.945495e-02 2.615958e-03 1.442901e-02
3.450000e+09 2.623547e-03 1.465762e-02 9.935161e-01 -2.985564e-02 9.935057e-01 -2.985018e-02 2.631579e-03 1.465338e-02
3.500000e+09 2.640239e-03 1.488230e-02 9.934648e-01 -3.025082e-02 9.934548e-01 -3.024487e-02 2.647964e-03 1.487768e-02
3.550000e+09 2.657705e-03 1.510687e-02 9.934140e-01 -3.064547e-02 9.934043e-01 -3.063905e-02 2.665107e-03 1.510189e-02
3.600000e+09 2.675939e-03 1.533131e-02 9.933635e-01 -3.103962e-02 9.933543e-01 -3.103276e-02 2.683000e-03 1.532599e-02
3.650000e+09 2.694930e-03 1.555560e-02 9.933133e-01 -3.143329e-02 9.933046e-01 -3.142602e-02 2.701636e-03 1.554996e-02
3.700000e+09 2.714669e-03 1.577972e-02 9.932635e-01 -3.182652e-02 9.932553e-01 -3.181887e-02 2.721006e-03 1.577378e-02
3.750000e+09 2.735145e-03 1.600366e-02 9.932141e-01 -3.221934e-02 9.932063e-01 -3.221133e-02 2.741100e-03 1.599744e-02
3.800000e+09 2.756347e-03 1.622738e-02 9.931651e-01 -3.261178e-02 9.931578e-01 -3.260343e-02 2.761910e-03 1.622091e-02
3.850000e+09 2.778263e-03 1.645088e-02 9.931164e-01 -3.300385e-02 9.931096e-01 -3.299521e-02 2.783423e-03 1.644418e-02
3.900000e+09 2.800881e-03 1.667415e-02 9.930681e-01 -3.339560e-02 9.930618e-01 -3.338668e-02 2.805631e-03 1.666724e-02
3.950000e+09 2.824188e-03 1.689715e-02 9.930201e-01 -3.378704e-02 9.930143e-01 -3.377788e-02 2.828519e-03 1.689006e-02
4.000000e+09 2.848170e-03 1.711988e-02 9.929724e-01 -3.417820e-02 9.929672e-01 -3.416882e-02 2.852077e-03 1.711263e-02
4.050000e+09 2.872814e-03 1.734233e-02 9.929251e-01 -3.456910e-02 9.929204e-01 -3.455954e-02 2.876292e-03 1.733494e-02
4.100000e+09 2.898105e-03 1.756448e-02 9.928781e-01 -3.495977e-02 9.928739e-01 -3.495006e-02 2.901151e-03 1.755697e-02
4.150000e+09 2.924028e-03 1.778631e-02 9.928313e-01 -3.535022e-02 9.928277e-01 -3.534040e-02 2.926640e-03 1.777872e-02
4.200000e+09 2.950568e-03 1.800782e-02 9.927849e-01 -3.574049e-02 9.927819e-01 -3.573058e-02 2.952746e-03 1.800016e-02
4.250000e+09 2.977711e-03 1.822900e-02 9.927388e-01 -3.613059e-02 9.927363e-01 -3.612061e-02 2.979454e-03 1.822129e-02
4.300000e+09 3.005441e-03 1.844983e-02 9.926929e-01 -3.652054e-02 9.926910e-01 -3.651053e-02 3.006751e-03 1.844210e-02
4.350000e+09 3.033742e-03 1.867030e-02 9.926473e-01 -3.691036e-02 9.926459e-01 -3.690034e-02 3.034622e-03 1.866258e-02
4.400000e+09 3.062597e-03 1.889041e-02 9.926020e-01 -3.730007e-02 9.926011e-01 -3.729007e-02 3.063052e-03 1.888271e-02
4.450000e+09 3.091992e-03 1.911015e-02 9.925569e-01 -3.768968e-02 9.925565e-01 -3.767973e-02 3.092027e-03 1.910250e-02
4.500000e+09 3.121911e-03 1.932951e-02 9.925120e-01 -3.807920e-02 9.925121e-01 -3.806934e-02 3.121530e-03 1.932192e-02
4.550000e+09 3.152336e-03 1.954848e-02 9.924673e-01 -3.846867e-02 9.924680e-01 -3.845891e-02 3.151549e-03 1.954098e-02
4.600000e+09 3.183252e-03 1.976706e-02 9.924228e-01 -3.885808e-02 9.924240e-01 -3.884845e-02 3.182066e-03 1.975967e-02
4.650000e+09 3.214643e-03 1.998525e-02 9.923786e-01 -3.924745e-02 9.923802e-01 -3.923798e-02 3.213067e-03 1.997798e-02
4.700000e+09 3.246492e-03 2.020303e-02 9.923344e-01 -3.963679e-02 9.923365e-01 -3.962750e-02 3.244537e-03 2.019591e-02
4.750000e+09 3.278784e-03 2.042040e-02 9.922905e-01 -4.002612e-02 9.922930e-01 -4.001703e-02 3.276461e-03 2.041345e-02
4.800000e+09 3.311503e-03 2.063737e-02 9.922466e-01 -4.041545e-02 9.922496e-01 -4.040658e-02 3.308823e-03 2.063060e-02
4.850000e+09 3.344633e-03 2.085393e-02 9.922029e-01 -4.080478e-02 9.922064e-01 -4.079616e-02 3.341610e-03 2.084735e-02
4.900000e+09 3.378159e-03 2.107008e-02 9.921593e-01 -4.119412e-02 9.921632e-01 -4.118577e-02 3.374805e-03 2.106371e-02
4.950000e+09 3.412064e-03 2.128581e-02 9.921158e-01 -4.158349e-02 9.921201e-01 -4.157542e-02 3.408394e-03 2.127967e-02
5.000000e+09 3.446335e-03 2.150113e-02 9.920724e-01 -4.197288e-02 9.920771e-01 -4.196511e-02 3.442363e-03 2.149523e-02
5.050000e+09 3.480955e-03 2.171604e-02 9.920291e-01 -4.236231e-02 9.920341e-01 -4.235486e-02 3.476697e-03 2.171039e-02
5.100000e+09 3.515911e-03 2.193053e-02 9.919858e-01 -4.275178e-02 9.919911e-01 -4.274467e-02 3.511381e-03 2.192515e-02
5.150000e+09 3.551187e-03 2.214461e-02 9.919425e-01 -4.314130e-02 9.919482e-01 -4.313453e-02 3.546403e-03 2.213951e-02
5.200000e+09 3.586770e-03 2.235828e-02 9.918993e-01 -4.353086e-02 9.919053e-01 -4.352446e-02 3.581748e-03 2.235347e-02
5.250000e+09 3.622646e-03 2.257155e-02 9.918561e-01 -4.392048e-02 9.918623e-01 -4.391445e-02 3.617403e-03 2.256704e-02
5.300000e+09 3.658801e-03 2.278441e-02 9.918129e-01 -4.431015e-02 9.918194e-01 -4.430451e-02 3.653355e-03 2.278020e-02
5.350000e+09 3.695222e-03 2.299686e-02 9.917697e-01 -4.469989e-02 9.917764e-01 -4.469463e-02 3.689590e-03 2.299297e-02
5.400000e+09 3.731896e-03 2.320892e-02 9.917265e-01 -4.508968e-02 9.917334e-01 -4.508483e-02 3.726096e-03 2.320535e-02
5.450000e+09 3.768812e-03 2.342059e-02 9.916832e-01 -4.547953e-02 9.916903e-01 -4.547509e-02 3.762862e-03 2.341734e-02
5.500000e+09 3.805956e-03 2.363187e-02 9.916399e-01 -4.586945e-02 9.916471e-01 -4.586542e-02 3.799873e-03 2.362895e-02
5.550000e+09 3.843317e-03 2.384276e-02 9.915965e-01 -4.625942e-02 9.916039e-01 -4.625581e-02 3.837120e-03 2.384017e-02
5.600000e+09 3.880884e-03 2.405327e-02 9.915530e-01 -4.664946e-02 9.915606e-01 -4.664627e-02 3.874591e-03 2.405102e-02
5.650000e+09 3.918646e-03 2.426341e-02 9.915095e-01 -4.703955e-02 9.915171e-01 -4.703679e-02 3.912275e-03 2.426150e-02
5.700000e+09 3.956592e-03 2.447318e-02 9.914659e-01 -4.742971e-02 9.914736e-01 -4.742737e-02 3.950160e-03 2.447160e-02
5.750000e+09 3.994713e-03 2.468259e-02 9.914222e-01 -4.781992e-02 9.914299e-01 -4.781800e-02 3.988238e-03 2.468135e-02
5.800000e+09 4.032998e-03 2.489165e-02 9.913783e-01 -4.821018e-02 9.913861e-01 -4.820868e-02 4.026499e-03 2.489074e-02
5.850000e+09 4.071439e-03 2.510035e-02 9.913344e-01 -4.860049e-02 9.913422e-01 -4.859941e-02 4.064932e-03 2.509977e-02
5.900000e+09 4.110026e-03 2.530871e-02 9.912903e-01 -4.899085e-02 9.912981e-01 -4.899019e-02 4.103528e-03 2.530846e-02
5.950000e+09 4.148752e-03 2.551674e-02 9.912461e-01 -4.938125e-02 9.912538e-01 -4.938100e-02 4.142280e-03 2.551681e-02
6.000000e+09 4.187608e-03 2.572443e-02 9.912017e-01 -4.977170e-02 9.912094e-01 -4.977185e-02 4.181178e-03 2.572483e-02
6.050000e+09 4.226587e-03 2.593181e-02 9.911572e-01 -5.016218e-02 9.911648e-01 -5.016273e-02 4.220214e-03 2.593252e-02
6.100000e+09 4.265681e-03 2.613887e-02 9.911125e-01 -5.055269e-02 9.911200e-01 -5.055363e-02 4.259382e-03 2.613989e-02
6.150000e+09 4.304884e-03 2.634562e-02 9.910677e-01 -5.094322e-02 9.910750e-01 -5.094455e-02 4.298674e-03 2.634694e-02
6.200000e+09 4.344190e-03 2.655208e-02 9.910226e-01 -5.133378e-02 9.910298e-01 -5.133548e-02 4.338083e-03 2.655369e-02
6.250000e+09 4.383592e-03 2.675824e-02 9.909774e-01 -5.172436e-02 9.909845e-01 -5.172641e-02 4.377602e-03 2.676014e-02
6.300000e+09 4.423086e-03 2.696412e-02 9.909320e-01 -5.211494e-02 9.909389e-01 -5.211735e-02 4.417226e-03 2.696630e-02
6.350000e+09 4.462666e-03 2.716972e-02 9.908864e-01 -5.250554e-02 9.908931e-01 -5.250828e-02 4.456950e-03 2.717217e-02
6.400000e+09 4.502327e-03 2.737505e-02 9.908406e-01 -5.289613e-02 9.908471e-01 -5.289920e-02 4.496767e-03 2.737776e-02
6.450000e+09 4.542066e-03 2.758013e-02 9.907947e-01 -5.328672e-02 9.908009e-01 -5.329010e-02 4.536673e-03 2.758308e-02
6.500000e+09 4.581878e-03 2.778495e-02 9.907485e-01 -5.367730e-02 9.907545e-01 -5.368097e-02 4.576663e-03 2.778813e-02
6.550000e+09 4.621760e-03 2.798952e-02 9.907021e-01 -5.406786e-02 9.907079e-01 -5.407182e-02 4.616733e-03 2.799293e-02
6.600000e+09 4.661708e-03 2.819386e-02 9.906555e-01 -5.445840e-02 9.906610e-01 -5.446263e-02 4.656879e-03 2.819748e-02
6.650000e+09 4.701721e-03 2.839796e-02 9.906086e-01 -5.484891e-02 9.906139e-01 -5.485339e-02 4.697099e-03 2.840178e-02
6.700000e+09 4.741795e-03 2.860185e-02 9.905616e-01 -5.523939e-02 9.905666e-01 -5.524410e-02 4.737388e-03 2.860585e-02
6.750000e+09 4.781928e-03 2.880551e-02 9.905143e-01 -5.562983e-02 9.905190e-01 -5.563476e-02 4.777743e-03 2.880969e-02
6.800000e+09 4.822118e-03 2.900897e-02 9.904668e-01 -5.602022e-02 9.904712e-01 -5.602535e-02 4.818163e-03 2.901331e-02
6.850000e+09 4.862365e-03 2.921223e-02 9.904191e-01 -5.641057e-02 9.904232e-01 -5.641588e-02 4.858645e-03 2.921671e-02
6.900000e+09 4.902666e-03 2.941529e-02 9.903712e-01 -5.680085e-02 9.903750e-01 -5.680633e-02 4.899187e-03 2.941990e-02
6.950000e+09 4.943022e-03 2.961817e-02 9.903231e-01 -5.719107e-02 9.903265e-01 -5.719671e-02 4.939787e-03 2.962290e-02
7.000000e+09 4.983431e-03 2.982086e-02 9.902747e-01 -5.758123e-02 9.902778e-01 -5.758699e-02 4.980445e-03 2.982569e-02
7.050000e+09 5.023893e-03 3.002338e-02 9.902261e-01 -5.797131e-02 9.902289e-01 -5.797719e-02 5.021159e-03 3.002830e-02
7.100000e+09 5.064409e-03 3.022573e-02 9.901773e-01 -5.836131e-02 9.901797e-01 -5.836728e-02 5.061928e-03 3.023073e-02
7.150000e+09 5.104977e-03 3.042792e-02 9.901282e-01 -5.875123e-02 9.901304e-01 -5.875728e-02 5.102752e-03 3.043299e-02
7.200000e+09 5.145600e-03 3.062996e-02 9.900789e-01 -5.914105e-02 9.900808e-01 -5.914717e-02 5.143631e-03 3.063507e-02
7.250000e+09 5.186277e-03 3.083185e-02 9.900295e-01 -5.953079e-02 9.900309e-01 -5.953694e-02 5.184565e-03 3.083699e-02
7.300000e+09 5.227009e-03 3.103359e-02 9.899797e-01 -5.992042e-02 9.899809e-01 -5.992660e-02 5.225553e-03 3.103875e-02
7.350000e+09 5.267798e-03 3.123519e-02 9.899298e-01 -6.030995e-02 9.899306e-01 -6.031614e-02 5.266596e-03 3.124036e-02
7.400000e+09 5.308644e-03 3.143666e-02 9.898797e-01 -6.069937e-02 9.898802e-01 -6.070555e-02 5.307696e-03 3.144183e-02
7.450000e+09 5.349550e-03 3.163800e-02 9.898293e-01 -6.108868e-02 9.898295e-01 -6.109484e-02 5.348852e-03 3.164315e-02
7.500000e+09 5.390517e-03 3.183922e-02 9.897787e-01 -6.147787e-02 9.897786e-01 -6.148398e-02 5.390065e-03 3.184433e-02
7.550000e+09 5.431547e-03 3.204032e-02 9.897280e-01 -6.186694e-02 9.897275e-01 -6.187300e-02 5.431338e-03 3.204539e-02
7.600000e+09 5.472641e-03 3.224131e-02 9.896770e-01 -6.225588e-02 9.896762e-01 -6.226187e-02 5.472671e-03 3.224632e-02
7.650000e+09 5.513802e-03 3.244219e-02 9.896258e-01 -6.264470e-02 9.896247e-01 -6.265059e-02 5.514065e-03 3.244712e-02
7.700000e+09 5.555032e-03 3.264296e-02 9.895744e-01 -6.303339e-02 9.895730e-01 -6.303917e-02 5.555523e-03 3.264781e-02
7.750000e+09 5.596334e-03 3.284363e-02 9.895228e-01 -6.342193e-02 9.895211e-01 -6.342760e-02 5.597046e-03 3.284839e-02
7.800000e+09 5.637709e-03 3.304420e-02 9.894710e-01 -6.381035e-02 9.894691e-01 -6.381588e-02 5.638636e-03 3.304886e-02
7.850000e+09 5.679160e-03 3.324468e-02 9.894190e-01 -6.419862e-02 9.894168e-01 -6.420400e-02 5.680295e-03 3.324922e-02
7.900000e+09 5.720690e-03 3.344506e-02 9.893669e-01 -6.458674e-02 9.893644e-01 -6.459197e-02 5.722025e-03 3.344948e-02
7.950000e+09 5.762302e-03 3.364536e-02 9.893145e-01 -6.497472e-02 9.893118e-01 -6.497978e-02 5.763828e-03 3.364964e-02
8.000000e+09 5.803998e-03 3.384557e-02 9.892620e-01 -6.536255e-02 9.892590e-01 -6.536743e-02 5.805707e-03 3.384971e-02
8.050000e+09 5.845781e-03 3.404570e-02 9.892093e-01 -6.575024e-02 9.892061e-01 -6.575492e-02 5.847665e-03 3.404968e-02
8.100000e+09 5.887654e-03 3.424575e-02 9.891564e-01 -6.613777e-02 9.891530e-01 -6.614225e-02 5.889702e-03 3.424957e-02
8.150000e+09 5.929619e-03 3.444571e-02 9.891034e-01 -6.652514e-02 9.890997e-01 -6.652941e-02 5.931823e-03 3.444937e-02
8.200000e+09 5.971680e-03 3.464560e-02 9.890502e-01 -6.691236e-02 9.890463e-01 -6.691641e-02 5.974029e-03 3.464908e-02
8.250000e+09 6.013839e-03 3.484542e-02 9.889968e-01 -6.729943e-02 9.889928e-01 -6.730324e-02 6.016323e-03 3.484872e-02
8.300000e+09 6.056098e-03 3.504516e-02 9.889433e-01 -6.768634e-02 9.889391e-01 -6.768991e-02 6.058708e-03 3.504827e-02
8.350000e+09 6.098462e-03 3.524483e-02 9.888896e-01 -6.807309e-02 9.888852e-01 -6.807642e-02 6.101186e-03 3.524775e-02
8.400000e+09 6.140933e-03 3.544443e-02 9.888357e-01 -6.845969e-02 9.888313e-01 -6.846276e-02 6.143760e-03 3.544715e-02
8.450000e+09 6.183513e-03 3.564395e-02 9.887817e-01 -6.884612e-02 9.887771e-01 -6.884894e-02 6.186432e-03 3.564647e-02
8.500000e+09 6.226205e-03 3.584341e-02 9.887276e-01 -6.923240e-02 9.887229e-01 -6.923496e-02 6.229206e-03 3.584572e-02
8.550000e+09 6.269012e-03 3.604280e-02 9.886734e-01 -6.961852e-02 9.886685e-01 -6.962082e-02 6.272083e-03 3.604491e-02
8.600000e+09 6.311937e-03 3.624212e-02 9.886190e-01 -7.000448e-02 9.886141e-01 -7.000651e-02 6.315067e-03 3.624401e-02
8.650000e+09 6.354982e-03 3.644137e-02 9.885644e-01 -7.039028e-02 9.885595e-01 -7.039204e-02 6.358159e-03 3.644305e-02
8.700000e+09 6.398150e-03 3.664056e-02 9.885098e-01 -7.077593e-02 9.885048e-01 -7.077742e-02 6.401363e-03 3.664202e-02
8.750000e+09 6.441443e-03 3.683967e-02 9.884550e-01 -7.116142e-02 9.884499e-01 -7.116264e-02 6.444681e-03 3.684092e-02
8.800000e+09 6.484864e-03 3.703872e-02 9.884001e-01 -7.154676e-02 9.883950e-01 -7.154770e-02 6.488116e-03 3.703976e-02
8.850000e+09 6.528415e-03 3.723770e-02 9.883451e-01 -7.193194e-02 9.883400e-01 -7.193261e-02 6.531669e-03 3.723852e-02
8.900000e+09 6.572098e-03 3.743661e-02 9.882899e-01 -7.231697e-02 9.882848e-01 -7.231737e-02 6.575344e-03 3.743722e-02
8.950000e+09 6.615915e-03 3.763545e-02 9.882347e-01 -7.270184e-02 9.882296e-01 -7.270198e-02 6.619142e-03 3.763585e-02
9.000000e+09 6.659869e-03 3.783421e-02 9.881793e-01 -7.308657e-02 9.881743e-01 -7.308644e-02 6.663065e-03 3.783441e-02
9.050000e+09 6.703962e-03 3.803291e-02 9.881239e-01 -7.347115e-02 9.881189e-01 -7.347076e-02 6.707117e-03 3.803290e-02
9.100000e+09 6.748194e-03 3.823154e-02 9.880683e-01 -7.385559e-02 9.880634e-01 -7.385493e-02 6.751298e-03 3.823132e-02
9.150000e+09 6.792569e-03 3.843009e-02 9.880127e-01 -7.423988e-02 9.880078e-01 -7.423897e-02 6.795612e-03 3.842967e-02
9.200000e+09 6.837087e-03 3.862857e-02 9.879569e-01 -7.462403e-02 9.879521e-01 -7.462287e-02 6.840059e-03 3.862795e-02
9.250000e+09 6.881751e-03 3.882697e-02 9.879011e-01 -7.500803e-02 9.878964e-01 -7.500664e-02 6.884642e-03 3.882617e-02
9.300000e+09 6.926561e-03 3.902530e-02 9.878452e-01 -7.539191e-02 9.878406e-01 -7.539027e-02 6.929363e-03 3.902431e-02
9.350000e+09 6.971520e-03 3.922355e-02 9.877891e-01 -7.577564e-02 9.877846e-01 -7.577378e-02 6.974223e-03 3.922238e-02
9.400000e+09 7.016628e-03 3.942172e-02 9.877330e-01 -7.615925e-02 9.877287e-01 -7.615716e-02 7.019223e-03 3.942037e-02
9.450000e+09 7.061886e-03 3.961981e-02 9.876768e-01 -7.654272e-02 9.876726e-01 -7.654042e-02 7.064365e-03 3.961829e-02
9.500000e+09 7.107296e-03 3.981781e-02 9.876206e-01 -7.692607e-02 9.876165e-01 -7.692356e-02 7.109651e-03 3.981613e-02
9.550000e+09 7.152858e-03 4.001574e-02 9.875642e-01 -7.730929e-02 9.875603e-01 -7.730659e-02 7.155082e-03 4.001390e-02
9.600000e+09 7.198573e-03 4.021357e-02 9.875078e-01 -7.769239e-02 9.875040e-01 -7.768950e-02 7.200659e-03 4.021159e-02
9.650000e+09 7.244442e-03 4.041132e-02 9.874513e-01 -7.807537e-02 9.874477e-01 -7.807230e-02 7.246383e-03 4.040920e-02
9.700000e+09 7.290466e-03 4.060898e-02 9.873947e-01 -7.845824e-02 9.873913e-01 -7.845500e-02 7.292255e-03 4.060673e-02
9.750000e+09 7.336644e-03 4.080656e-02 9.873380e-01 -7.884099e-02 9.873348e-01 -7.883760e-02 7.338276e-03 4.080418e-02
9.800000e+09 7.382977e-03 4.100404e-02 9.872813e-01 -7.922363e-02 9.872783e-01 -7.922009e-02 7.384447e-03 4.100154e-02
9.850000e+09 7.429465e-03 4.120142e-02 9.872245e-01 -7.960617e-02 9.872217e-01 -7.960249e-02 7.430767e-03 4.119882e-02
9.900000e+09 7.476109e-03 4.139871e-02 9.871676e-01 -7.998860e-02 9.871650e-01 -7.998480e-02 7.477239e-03 4.139601e-02
9.950000e+09 7.522908e-03 4.159590e-02 9.871107e-01 -8.037093e-02 9.871083e-01 -8.036702e-02 7.523862e-03 4.159312e-02
1.000000e+10 7.569862e-03 4.179300e-02 9.870537e-01 -8.075316e-02 9.870515e-01 -8.074915e-02 7.570637e-03 4.179013e-02
1.005000e+10 7.616971e-03 4.198999e-02 9.869966e-01 -8.113530e-02 9.869947e-01 -8.113119e-02 7.617564e-03 4.198706e-02
1.010000e+10 7.664235e-03 4.218689e-02 9.869394e-01 -8.151734e-02 9.869377e-01 -8.151316e-02 7.664643e-03 4.218389e-02
1.015000e+10 7.711654e-03 4.238368e-02 9.868822e-01 -8.189930e-02 9.868807e-01 -8.189505e-02 7.711874e-03 4.238063e-02
1.020000e+10 7.759226e-03 4.258036e-02 9.868249e-01 -8.228117e-02 9.868237e-01 -8.227687e-02 7.759257e-03 4.257727e-02
1.025000e+10 7.806951e-03 4.277694e-02 9.867676e-01 -8.266296e-02 9.867665e-01 -8.265861e-02 7.806793e-03 4.277381e-02
1.030000e+10 7.854828e-03 4.297341e-02 9.867101e-01 -8.304466e-02 9.867093e-01 -8.304029e-02 7.854480e-03 4.297026e-02
1.035000e+10 7.902857e-03 4.316977e-02 9.866526e-01 -8.342629e-02 9.866521e-01 -8.342190e-02 7.902318e-03 4.316661e-02
1.040000e+10 7.951037e-03 4.336602e-02 9.865951e-01 -8.380785e-02 9.865947e-01 -8.380345e-02 7.950308e-03 4.336285e-02
1.045000e+10 7.999367e-03 4.356215e-02 9.865374e-01 -8.418933e-02 9.865373e-01 -8.418494e-02 7.998448e-03 4.355899e-02
1.050000e+10 8.047845e-03 4.375818e-02 9.864797e-01 -8.457075e-02 9.864798e-01 -8.456638e-02 8.046738e-03 4.375503e-02
1.055000e+10 8.096472e-03 4.395409e-02 9.864219e-01 -8.495210e-02 9.864222e-01 -8.494776e-02 8.095178e-03 4.395096e-02
1.060000e+10 8.145244e-03 4.414988e-02 9.863640e-01 -8.533339e-02 9.863646e-01 -8.532909e-02 8.143766e-03 4.414679e-02
1.065000e+10 8.194162e-03 4.434555e-02 9.863061e-01 -8.571461e-02 9.863069e-01 -8.571036e-02 8.192502e-03 4.434250e-02
1.070000e+10 8.243224e-03 4.454111e-02 9.862481e-01 -8.609578e-02 9.862491e-01 -8.609159e-02 8.241385e-03 4.453811e-02
1.075000e+10 8.292428e-03 4.473655e-02 9.861900e-01 -8.647689e-02 9.861912e-01 -8.647278e-02 8.290414e-03 4.473361e-02
1.080000e+10 8.341773e-03 4.493187e-02 9.861318e-01 -8.685795e-02 9.861332e-01 -8.685392e-02 8.339588e-03 4.492899e-02
1.085000e+10 8.391259e-03 4.512707e-02 9.860735e-01 -8.723896e-02 9.860751e-01 -8.723503e-02 8.388906e-03 4.512427e-02
1.090000e+10 8.440882e-03 4.532215e-02 9.860152e-01 -8.761992e-02 9.860170e-01 -8.761609e-02 8.438367e-03 4.531943e-02
1.095000e+10 8.490642e-03 4.551710e-02 9.859568e-01 -8.800084e-02 9.859588e-01 -8.799712e-02 8.487969e-03 4.551447e-02
1.100000e+10 8.540537e-03 4.571194e-02 9.858982e-01 -8.838170e-02 9.859004e-01 -8.837811e-02 8.537712e-03 4.570940e-02
1.105000e+10 8.590566e-03 4.590664e-02 9.858396e-01 -8.876253e-02 9.858420e-01 -8.875906e-02 8.587594e-03 4.590421e-02
1.110000e+10 8.640726e-03 4.610123e-02 9.857809e-01 -8.914332e-02 9.857835e-01 -8.913999e-02 8.637614e-03 4.609891e-02
1.115000e+10 8.691017e-03 4.629569e-02 9.857222e-01 -8.952406e-02 9.857248e-01 -8.952088e-02 8.687770e-03 4.629349e-02
1.120000e+10 8.741436e-03 4.649003e-02 9.856633e-01 -8.990477e-02 9.856661e-01 -8.990175e-02 8.738060e-03 4.648795e-02
1.125000e+10 8.791982e-03 4.668425e-02 9.856043e-01 -9.028545e-02 9.856073e-01 -9.028258e-02 8.788485e-03 4.668229e-02
1.130000e+10 8.842653e-03 4.687834e-02 9.855452e-01 -9.066609e-02 9.855483e-01 -9.066339e-02 8.839042e-03 4.687651e-02
1.135000e+10 8.893447e-03 4.707230e-02 9.854861e-01 -9.104670e-02 9.854893e-01 -9.104417e-02 8.889729e-03 4.707062e-02
1.140000e+10 8.944363e-03 4.726615e-02 9.854268e-01 -9.142727e-02 9.854301e-01 -9.142493e-02 8.940545e-03 4.726460e-02
1.145000e+10 8.995399e-03 4.745986e-02 9.853674e-01 -9.180782e-02 9.853709e-01 -9.180566e-02 8.991489e-03 4.745846e-02
1.150000e+10 9.046553e-03 4.765346e-02 9.853079e-01 -9.218834e-02 9.853115e-01 -9.218636e-02 9.042559e-03 4.765221e-02
1.155000e+10 9.097824e-03 4.784693e-02 9.852483e-01 -9.256882e-02 9.852519e-01 -9.256704e-02 9.093754e-03 4.784583e-02
1.160000e+10 9.149210e-03 4.804028e-02 9.851886e-01 -9.294929e-02 9.851923e-01 -9.294770e-02 9.145071e-03 4.803933e-02
1.165000e+10 9.200709e-03 4.823350e-02 9.851288e-01 -9.332972e-02 9.851325e-01 -9.332834e-02 9.196510e-03 4.823272e-02
1.170000e+10 9.252319e-03 4.842661e-02 9.850688e-01 -9.371013e-02 9.850727e-01 -9.370895e-02 9.248068e-03 4.842598e-02
1.175000e+10 9.304040e-03 4.861959e-02 9.850088e-01 -9.409052e-02 9.850126e-01 -9.408953e-02 9.299745e-03 4.861912e-02
1.180000e+10 9.355869e-03 4.881245e-02 9.849486e-01 -9.447088e-02 9.849525e-01 -9.447010e-02 9.351538e-03 4.881215e-02
1.185000e+10 9.407805e-03 4.900519e-02 9.848883e-01 -9.485121e-02 9.848922e-01 -9.485064e-02 9.403447e-03 4.900505e-02
1.190000e+10 9.459847e-03 4.919782e-02 9.848279e-01 -9.523152e-02 9.848318e-01 -9.523116e-02 9.455469e-03 4.919784e-02
1.195000e+10 9.511992e-03 4.939032e-02 9.847673e-01 -9.561181e-02 9.847712e-01 -9.561165e-02 9.507604e-03 4.939051e-02
1.200000e+10 9.564240e-03 4.958271e-02 9.847066e-01 -9.599208e-02 9.847105e-01 -9.599212e-02 9.559849e-03 4.958306e-02
1.205000e+10 9.616589e-03 4.977499e-02 9.846458e-01 -9.637232e-02 9.846497e-01 -9.637256e-02 9.612204e-03 4.977549e-02
1.210000e+10 9.669038e-03 4.996715e-02 9.845848e-01 -9.675253e-02 9.845887e-01 -9.675298e-02 9.664666e-03 4.996781e-02
1.215000e+10 9.721585e-03 5.015919e-02 9.845237e-01 -9.713273e-02 9.845276e-01 -9.713337e-02 9.717234e-03 5.016002e-02
1.220000e+10 9.774230e-03 5.035113e-02 9.844625e-01 -9.751290e-02 9.844663e-01 -9.751373e-02 9.769908e-03 5.035210e-02
1.225000e+10 9.826970e-03 5.054295e-02 9.844011e-01 -9.789304e-02 9.844049e-01 -9.789407e-02 9.822686e-03 5.054408e-02
1.230000e+10 9.879806e-03 5.073466e-02 9.843396e-01 -9.827316e-02 9.843433e-01 -9.827438e-02 9.875566e-03 5.073594e-02
1.235000e+10 9.932736e-03 5.092627e-02 9.842779e-01 -9.865326e-02 9.842815e-01 -9.865466e-02 9.928547e-03 5.092769e-02
1.240000e+10 9.985758e-03 5.111776e-02 9.842161e-01 -9.903333e-02 9.842196e-01 -9.903491e-02 9.981628e-03 5.111933e-02
1.245000e+10 1.003887e-02 5.130916e-02 9.841542e-01 -9.941337e-02 9.841576e-01 -9.941512e-02 1.003481e-02 5.131087e-02
1.250000e+10 1.009208e-02 5.150045e-02 9.840921e-01 -9.979338e-02 9.840953e-01 -9.979531e-02 1.008809e-02 5.150229e-02
1.255000e+10 1.014537e-02 5.169163e-02 9.840298e-01 -1.001734e-01 9.840330e-01 -1.001755e-01 1.014146e-02 5.169361e-02
1.260000e+10 1.019876e-02 5.188272e-02 9.839674e-01 -1.005533e-01 9.839704e-01 -1.005556e-01 1.019493e-02 5.188482e-02
1.265000e+10 1.025223e-02 5.207371e-02 9.839048e-01 -1.009333e-01 9.839077e-01 -1.009356e-01 1.024850e-02 5.207592e-02
1.270000e+10 1.030580e-02 5.226460e-02 9.838420e-01 -1.013132e-01 9.838448e-01 -1.013157e-01 1.030215e-02 5.226693e-02
1.275000e+10 1.035945e-02 5.245539e-02 9.837792e-01 -1.016930e-01 9.837818e-01 -1.016957e-01 1.035591e-02 5.245783e-02
1.280000e+10 1.041319e-02 5.264609e-02 9.837161e-01 -1.020729e-01 9.837186e-01 -1.020756e-01 1.040975e-02 5.264863e-02
1.285000e+10 1.046701e-02 5.283670e-02 9.836529e-01 -1.024527e-01 9.836552e-01 -1.024556e-01 1.046369e-02 5.283934e-02
1.290000e+10 1.052092e-02 5.302722e-02 9.835895e-01 -1.028324e-01 9.835917e-01 -1.028354e-01 1.051771e-02 5.302994e-02
1.295000e+10 1.057492e-02 5.321765e-02 9.835259e-01 -1.032121e-01 9.835279e-01 -1.032153e-01 1.057183e-02 5.322045e-02
1.300000e+10 1.062900e-02 5.340799e-02 9.834622e-01 -1.035918e-01 9.834640e-01 -1.035951e-01 1.062604e-02 5.341087e-02
1.305000e+10 1.068317e-02 5.359824e-02 9.833983e-01 -1.039715e-01 9.834000e-01 -1.039748e-01 1.068033e-02 5.360120e-02
1.310000e+10 1.073743e-02 5.378841e-02 9.833343e-01 -1.043511e-01 9.833357e-01 -1.043545e-01 1.073472e-02 5.379143e-02
1.315000e+10 1.079177e-02 5.397851e-02 9.832700e-01 -1.047307e-01 9.832713e-01 -1.047341e-01 1.078919e-02 5.398157e-02
1.320000e+10 1.084620e-02 5.416851e-02 9.832056e-01 -1.051102e-01 9.832067e-01 -1.051137e-01 1.084375e-02 5.417163e-02
1.325000e+10 1.090071e-02 5.435845e-02 9.831411e-01 -1.054897e-01 9.831420e-01 -1.054932e-01 1.089840e-02 5.436160e-02
1.330000e+10 1.095531e-02 5.454830e-02 9.830763e-01 -1.058691e-01 9.830770e-01 -1.058727e-01 1.095314e-02 5.455149e-02
1.335000e+10 1.101000e-02 5.473808e-02 9.830114e-01 -1.062485e-01 9.830119e-01 -1.062521e-01 1.100796e-02 5.474129e-02
1.340000e+10 1.106478e-02 5.492778e-02 9.829463e-01 -1.066279e-01 9.829466e-01 -1.066315e-01 1.106287e-02 5.493101e-02
1.345000e+10 1.111964e-02 5.511742e-02 9.828810e-01 -1.070072e-01 9.828812e-01 -1.070108e-01 1.111787e-02 5.512065e-02
1.350000e+10 1.117459e-02 5.530698e-02 9.828156e-01 -1.073864e-01 9.828156e-01 -1.073900e-01 1.117296e-02 5.531022e-02
1.355000e+10 1.122963e-02 5.549647e-02 9.827500e-01 -1.077656e-01 9.827497e-01 -1.077692e-01 1.122814e-02 5.549970e-02
1.360000e+10 1.128476e-02 5.568590e-02 9.826842e-01 -1.081447e-01 9.826838e-01 -1.081483e-01 1.128340e-02 5.568911e-02
1.365000e+10 1.133997e-02 5.587526e-02 9.826182e-01 -1.085238e-01 9.826176e-01 -1.085274e-01 1.133876e-02 5.587845e-02
1.370000e+10 1.139528e-02 5.606455e-02 9.825520e-01 -1.089028e-01 9.825513e-01 -1.089064e-01 1.139420e-02 5.606772e-02
1.375000e+10 1.145068e-02 5.625379e-02 9.824857e-01 -1.092818e-01 9.824847e-01 -1.092853e-01 1.144973e-02 5.625692e-02
1.380000e+10 1.150617e-02 5.644296e-02 9.824192e-01 -1.096607e-01 9.824181e-01 -1.096641e-01 1.150535e-02 5.644604e-02
1.385000e+10 1.156176e-02 5.663207e-02 9.823525e-01 -1.100396e-01 9.823512e-01 -1.100429e-01 1.156106e-02 5.663510e-02
1.390000e+10 1.161744e-02 5.682112e-02 9.822857e-01 -1.104184e-01 9.822842e-01 -1.104216e-01 1.161686e-02 5.682410e-02
1.395000e+10 1.167321e-02 5.701011e-02 9.822186e-01 -1.107971e-01 9.822170e-01 -1.108002e-01 1.167275e-02 5.701303e-02
1.400000e+10 1.172908e-02 5.719905e-02 9.821514e-01 -1.111757e-01 9.821496e-01 -1.111788e-01 1.172874e-02 5.720190e-02
1.405000e+10 1.178505e-02 5.738793e-02 9.820840e-01 -1.115543e-01 9.820821e-01 -1.115573e-01 1.178481e-02 5.739070e-02
1.410000e+10 1.184111e-02 5.757676e-02 9.820165e-01 -1.119329e-01 9.820144e-01 -1.119357e-01 1.184098e-02 5.757945e-02
1.415000e+10 1.189727e-02 5.776553e-02 9.819487e-01 -1.123113e-01 9.819465e-01 -1.123141e-01 1.189725e-02 5.776813e-02
1.420000e+10 1.195354e-02 5.795425e-02 9.818808e-01 -1.126897e-01 9.818784e-01 -1.126923e-01 1.195361e-02 5.795676e-02
1.425000e+10 1.200990e-02 5.814292e-02 9.818127e-01 -1.130680e-01 9.818102e-01 -1.130705e-01 1.201006e-02 5.814533e-02
1.430000e+10 1.206637e-02 5.833154e-02 9.817445e-01 -1.134463e-01 9.817418e-01 -1.134486e-01 1.206661e-02 5.833384e-02
1.435000e+10 1.212294e-02 5.852011e-02 9.816760e-01 -1.138245e-01 9.816733e-01 -1.138267e-01 1.212326e-02 5.852230e-02
1.440000e+10 1.217961e-02 5.870863e-02 9.816074e-01 -1.142026e-01 9.816046e-01 -1.142046e-01 1.218001e-02 5.871071e-02
1.445000e+10 1.223639e-02 5.889710e-02 9.815387e-01 -1.145806e-01 9.815357e-01 -1.145825e-01 1.223686e-02 5.889907e-02
1.450000e+10 1.229328e-02 5.908552e-02 9.814697e-01 -1.149586e-01 9.814666e-01 -1.149603e-01 1.229381e-02 5.908737e-02
1.455000e+10 1.235028e-02 5.927390e-02 9.814006e-01 -1.153365e-01 9.813974e-01 -1.153380e-01 1.235086e-02 5.927562e-02
1.460000e+10 1.240738e-02 5.946223e-02 9.813313e-01 -1.157143e-01 9.813281e-01 -1.157157e-01 1.240801e-02 5.946383e-02
1.465000e+10 1.246460e-02 5.965052e-02 9.812619e-01 -1.160920e-01 9.812586e-01 -1.160933e-01 1.246527e-02 5.965198e-02
1.470000e+10 1.252193e-02 5.983876e-02 9.811922e-01 -1.164697e-01 9.811889e-01 -1.164707e-01 1.252263e-02 5.984009e-02
1.475000e+10 1.257937e-02 6.002695e-02 9.811225e-01 -1.168473e-01 9.811190e-01 -1.168482e-01 1.258010e-02 6.002815e-02
1.480000e+10 1.263693e-02 6.021510e-02 9.810525e-01 -1.172248e-01 9.810490e-01 -1.172255e-01 1.263768e-02 6.021616e-02
1.485000e+10 1.269460e-02 6.040320e-02 9.809824e-01 -1.176022e-01 9.809789e-01 -1.176027e-01 1.269536e-02 6.040412e-02
1.490000e+10 1.275239e-02 6.059126e-02 9.809121e-01 -1.179796e-01 9.809086e-01 -1.179799e-01 1.275316e-02 6.059204e-02
1.495000e+10 1.281030e-02 6.077927e-02 9.808417e-01 -1.183568e-01 9.808381e-01 -1.183570e-01 1.281107e-02 6.077992e-02
1.500000e+10 1.286833e-02 6.096724e-02 9.807711e-01 -1.187340e-01 9.807675e-01 -1.187340e-01 1.286908e-02 6.096775e-02
1.505000e+10 1.292648e-02 6.115517e-02 9.807003e-01 -1.191112e-01 9.806968e-01 -1.191109e-01 1.292722e-02 6.115554e-02
1.510000e+10 1.298475e-02 6.134305e-02 9.806294e-01 -1.194882e-01 9.806259e-01 -1.194878e-01 1.298546e-02 6.134328e-02
1.515000e+10 1.304315e-02 6.153089e-02 9.805583e-01 -1.198652e-01 9.805548e-01 -1.198646e-01 1.304382e-02 6.153098e-02
1.520000e+10 1.310167e-02 6.171868e-02 9.804871e-01 -1.202420e-01 9.804836e-01 -1.202413e-01 1.310230e-02 6.171864e-02
1.525000e+10 1.316032e-02 6.190643e-02 9.804157e-01 -1.206188e-01 9.804123e-01 -1.206179e-01 1.316090e-02 6.190625e-02
1.530000e+10 1.321909e-02 6.209413e-02 9.803441e-01 -1.209956e-01 9.803408e-01 -1.209944e-01 1.321962e-02 6.209382e-02
1.535000e+10 1.327799e-02 6.228179e-02 9.802724e-01 -1.213722e-01 9.802691e-01 -1.213709e-01 1.327845e-02 6.228134e-02
1.540000e+10 1.333701e-02 6.246940e-02 9.802006e-01 -1.217488e-01 9.801974e-01 -1.217473e-01 1.333741e-02 6.246883e-02
1.545000e+10 1.339617e-02 6.265696e-02 9.801286e-01 -1.221253e-01 9.801254e-01 -1.221237e-01 1.339650e-02 6.265627e-02
1.550000e+10 1.345546e-02 6.284448e-02 9.800564e-01 -1.225017e-01 9.800534e-01 -1.224999e-01 1.345570e-02 6.284366e-02
1.555000e+10 1.351488e-02 6.303195e-02 9.799841e-01 -1.228781e-01 9.799812e-01 -1.228761e-01 1.351503e-02 6.303102e-02
1.560000e+10 1.357443e-02 6.321937e-02 9.799117e-01 -1.232543e-01 9.799088e-01 -1.232522e-01 1.357449e-02 6.321833e-02
1.565000e+10 1.363412e-02 6.340675e-02 9.798391e-01 -1.236305e-01 9.798363e-01 -1.236283e-01 1.363407e-02 6.340559e-02
1.570000e+10 1.369394e-02 6.359408e-02 9.797663e-01 -1.240066e-01 9.797637e-01 -1.240043e-01 1.369378e-02 6.359282e-02
1.575000e+10 1.375389e-02 6.378135e-02 9.796934e-01 -1.243827e-01 9.796909e-01 -1.243802e-01 1.375362e-02 6.378000e-02
1.580000e+10 1.381398e-02 6.396858e-02 9.796204e-01 -1.247587e-01 9.796180e-01 -1.247560e-01 1.381359e-02 6.396713e-02
1.585000e+10 1.387420e-02 6.415576e-02 9.795472e-01 -1.251346e-01 9.795450e-01 -1.251318e-01 1.387369e-02 6.415422e-02
1.590000e+10 1.393456e-02 6.434288e-02 9.794739e-01 -1.255104e-01 9.794718e-01 -1.255075e-01 1.393393e-02 6.434126e-02
1.595000e+10 1.399506e-02 6.452996e-02 9.794004e-01 -1.258862e-01 9.793985e-01 -1.258832e-01 1.399429e-02 6.452826e-02
1.600000e+10 1.405570e-02 6.471698e-02 9.793268e-01 -1.262619e-01 9.793250e-01 -1.262588e-01 1.405479e-02 6.471521e-02
1.605000e+10 1.411647e-02 6.490395e-02 9.792531e-01 -1.266375e-01 9.792515e-01 -1.266343e-01 1.411542e-02 6.490211e-02
1.610000e+10 1.417738e-02 6.509086e-02 9.791792e-01 -1.270130e-01 9.791777e-01 -1.270098e-01 1.417619e-02 6.508897e-02
1.615000e+10 1.423843e-02 6.527772e-02 9.791051e-01 -1.273885e-01 9.791039e-01 -1.273852e-01 1.423709e-02 6.527578e-02
1.620000e+10 1.429962e-02 6.546452e-02 9.790310e-01 -1.277640e-01 9.790299e-01 -1.277606e-01 1.429813e-02 6.546254e-02
1.625000e+10 1.436095e-02 6.565127e-02 9.789567e-01 -1.281393e-01 9.789558e-01 -1.281359e-01 1.435931e-02 6.564925e-02
1.630000e+10 1.442242e-02 6.583796e-02 9.788822e-01 -1.285146e-01 9.788815e-01 -1.285111e-01 1.442062e-02 6.583591e-02
1.635000e+10 1.448403e-02 6.602459e-02 9.788076e-01 -1.288899e-01 9.788071e-01 -1.288863e-01 1.448207e-02 6.602252e-02
1.640000e+10 1.454578e-02 6.621116e-02 9.787329e-01 -1.292651e-01 9.787326e-01 -1.292615e-01 1.454366e-02 6.620908e-02
1.645000e+10 1.460766e-02 6.639767e-02 9.786581e-01 -1.296402e-01 9.786579e-01 -1.296366e-01 1.460538e-02 6.639558e-02
1.650000e+10 1.466969e-02 6.658413e-02 9.785831e-01 -1.300152e-01 9.785831e-01 -1.300116e-01 1.466725e-02 6.658204e-02
1.655000e+10 1.473185e-02 6.677052e-02 9.785079e-01 -1.303902e-01 9.785081e-01 -1.303867e-01 1.472925e-02 6.676844e-02
1.660000e+10 1.479416e-02 6.695685e-02 9.784327e-01 -1.307652e-01 9.784331e-01 -1.307616e-01 1.479139e-02 6.695478e-02
1.665000e+10 1.485660e-02 6.714311e-02 9.783573e-01 -1.311401e-01 9.783579e-01 -1.311365e-01 1.485368e-02 6.714107e-02
1.670000e+10 1.491919e-02 6.732932e-02 9.782817e-01 -1.315149e-01 9.782825e-01 -1.315114e-01 1.491610e-02 6.732731e-02
1.675000e+10 1.498191e-02 6.751545e-02 9.782061e-01 -1.318897e-01 9.782070e-01 -1.318862e-01 1.497866e-02 6.751348e-02
1.680000e+10 1.504477e-02 6.770153e-02 9.781303e-01 -1.322645e-01 9.781314e-01 -1.322610e-01 1.504136e-02 6.769960e-02
1.685000e+10 1.510776e-02 6.788754e-02 9.780543e-01 -1.326392e-01 9.780556e-01 -1.326358e-01 1.510421e-02 6.788566e-02
1.690000e+10 1.517090e-02 6.807348e-02 9.779782e-01 -1.330138e-01 9.779797e-01 -1.330105e-01 1.516719e-02 6.807167e-02
1.695000e+10 1.523417e-02 6.825935e-02 9.779020e-01 -1.333884e-01 9.779037e-01 -1.333852e-01 1.523031e-02 6.825761e-02
1.700000e+10 1.529758e-02 6.844516e-02 9.778257e-01 -1.337630e-01 9.778275e-01 -1.337598e-01 1.529357e-02 6.844349e-02
1.705000e+10 1.536112e-02 6.863090e-02 9.777492e-01 -1.341375e-01 9.777512e-01 -1.341344e-01 1.535697e-02 6.862932e-02
1.710000e+10 1.542480e-02 6.881657e-02 9.776726e-01 -1.345119e-01 9.776747e-01 -1.345090e-01 1.542051e-02 6.881508e-02
1.715000e+10 1.548861e-02 6.900217e-02 9.775958e-01 -1.348863e-01 9.775981e-01 -1.348835e-01 1.548418e-02 6.900077e-02
1.720000e+10 1.555256e-02 6.918771e-02 9.775189e-01 -1.352607e-01 9.775213e-01 -1.352580e-01 1.554800e-02 6.918641e-02
1.725000e+10 1.561664e-02 6.937317e-02 9.774419e-01 -1.356351e-01 9.774445e-01 -1.356325e-01 1.561195e-02 6.937198e-02
1.730000e+10 1.568085e-02 6.955856e-02 9.773647e-01 -1.360094e-01 9.773674e-01 -1.360069e-01 1.567604e-02 6.955748e-02
1.735000e+10 1.574520e-02 6.974388e-02 9.772874e-01 -1.363836e-01 9.772902e-01 -1.363813e-01 1.574027e-02 6.974292e-02
1.740000e+10 1.580967e-02 6.992913e-02 9.772099e-01 -1.367579e-01 9.772129e-01 -1.367557e-01 1.580464e-02 6.992830e-02
1.745000e+10 1.587428e-02 7.011431e-02 9.771323e-01 -1.371321e-01 9.771354e-01 -1.371301e-01 1.586914e-02 7.011360e-02
1.750000e+10 1.593901e-02 7.029941e-02 9.770546e-01 -1.375062e-01 9.770578e-01 -1.375044e-01 1.593377e-02 7.029884e-02
1.755000e+10 1.600387e-02 7.048445e-02 9.769767e-01 -1.378804e-01 9.769800e-01 -1.378787e-01 1.599854e-02 7.048402e-02
1.760000e+10 1.606886e-02 7.066941e-02 9.768987e-01 -1.382545e-01 9.769021e-01 -1.382530e-01 1.606345e-02 7.066912e-02
1.765000e+10 1.613398e-02 7.085430e-02 9.768205e-01 -1.386285e-01 9.768240e-01 -1.386272e-01 1.612848e-02 7.085416e-02
1.770000e+10 1.619922e-02 7.103912e-02 9.767422e-01 -1.390026e-01 9.767458e-01 -1.390014e-01 1.619366e-02 7.103913e-02
1.775000e+10 1.626459e-02 7.122386e-02 9.766638e-01 -1.393766e-01 9.766674e-01 -1.393756e-01 1.625896e-02 7.122403e-02
1.780000e+10 1.633008e-02 7.140854e-02 9.765852e-01 -1.397505e-01 9.765888e-01 -1.397498e-01 1.632439e-02 7.140885e-02
1.785000e+10 1.639569e-02 7.159314e-02 9.765064e-01 -1.401245e-01 9.765101e-01 -1.401239e-01 1.638995e-02 7.159361e-02
1.790000e+10 1.646142e-02 7.177767e-02 9.764275e-01 -1.404984e-01 9.764313e-01 -1.404980e-01 1.645565e-02 7.177830e-02
1.795000e+10 1.652728e-02 7.196212e-02 9.763485e-01 -1.408723e-01 9.763523e-01 -1.408721e-01 1.652147e-02 7.196292e-02
1.800000e+10 1.659325e-02 7.214651e-02 9.762693e-01 -1.412462e-01 9.762731e-01 -1.412462e-01 1.658742e-02 7.214747e-02
1.805000e+10 1.665935e-02 7.233082e-02 9.761900e-01 -1.416200e-01 9.761937e-01 -1.416202e-01 1.665349e-02 7.233195e-02
1.810000e+10 1.672556e-02 7.251507e-02 9.761105e-01 -1.419938e-01 9.761142e-01 -1.419942e-01 1.671969e-02 7.251635e-02
1.815000e+10 1.679188e-02 7.269924e-02 9.760308e-01 -1.423676e-01 9.760346e-01 -1.423682e-01 1.678602e-02 7.270069e-02
1.820000e+10 1.685833e-02 7.288334e-02 9.759510e-01 -1.427414e-01 9.759548e-01 -1.427422e-01 1.685247e-02 7.288495e-02
1.825000e+10 1.692489e-02 7.306737e-02 9.758711e-01 -1.431151e-01 9.758748e-01 -1.431161e-01 1.691904e-02 7.306915e-02
1.830000e+10 1.699156e-02 7.325133e-02 9.757910e-01 -1.434888e-01 9.757946e-01 -1.434900e-01 1.698574e-02 7.325327e-02
1.835000e+10 1.705834e-02 7.343523e-02 9.757107e-01 -1.438625e-01 9.757143e-01 -1.438639e-01 1.705255e-02 7.343732e-02
1.840000e+10 1.712524e-02 7.361905e-02 9.756303e-01 -1.442362e-01 9.756338e-01 -1.442378e-01 1.711949e-02 7.362131e-02
1.845000e+10 1.719225e-02 7.380281e-02 9.755497e-01 -1.446098e-01 9.755532e-01 -1.446116e-01 1.718655e-02 7.380522e-02
1.850000e+10 1.725937e-02 7.398650e-02 9.754690e-01 -1.449834e-01 9.754724e-01 -1.449854e-01 1.725372e-02 7.398906e-02
1.855000e+10 1.732660e-02 7.417012e-02 9.753881e-01 -1.453570e-01 9.753914e-01 -1.453592e-01 1.732101e-02 7.417283e-02
1.860000e+10 1.739393e-02 7.435368e-02 9.753071e-01 -1.457306e-01 9.753102e-01 -1.457329e-01 1.738842e-02 7.435653e-02
1.865000e+10 1.746138e-02 7.453718e-02 9.752258e-01 -1.461041e-01 9.752289e-01 -1.461066e-01 1.745594e-02 7.454017e-02
1.870000e+10 1.752893e-02 7.472061e-02 9.751445e-01 -1.464776e-01 9.751474e-01 -1.464803e-01 1.752357e-02 7.472373e-02
1.875000e+10 1.759659e-02 7.490397e-02 9.750629e-01 -1.468511e-01 9.750657e-01 -1.468540e-01 1.759132e-02 7.490723e-02
1.880000e+10 1.766435e-02 7.508728e-02 9.749812e-01 -1.472246e-01 9.749838e-01 -1.472276e-01 1.765918e-02 7.509066e-02
1.885000e+10 1.773222e-02 7.527052e-02 9.748993e-01 -1.475981e-01 9.749018e-01 -1.476012e-01 1.772716e-02 7.527402e-02
1.890000e+10 1.780020e-02 7.545370e-02 9.748173e-01 -1.479715e-01 9.748196e-01 -1.479748e-01 1.779524e-02 7.545732e-02
1.895000e+10 1.786827e-02 7.563683e-02 9.747351e-01 -1.483449e-01 9.747372e-01 -1.483483e-01 1.786343e-02 7.564055e-02
1.900000e+10 1.793646e-02 7.581989e-02 9.746527e-01 -1.487182e-01 9.746547e-01 -1.487218e-01 1.793174e-02 7.582372e-02
1.905000e+10 1.800474e-02 7.600290e-02 9.745702e-01 -1.490916e-01 9.745720e-01 -1.490952e-01 1.800015e-02 7.600682e-02
1.910000e+10 1.807313e-02 7.618585e-02 9.744875e-01 -1.494649e-01 9.744891e-01 -1.494686e-01 1.806866e-02 7.618986e-02
1.915000e+10 1.814162e-02 7.636875e-02 9.744046e-01 -1.498382e-01 9.744060e-01 -1.498420e-01 1.813729e-02 7.637283e-02
1.920000e+10 1.821021e-02 7.655159e-02 9.743215e-01 -1.502114e-01 9.743227e-01 -1.502153e-01 1.820602e-02 7.655574e-02
1.925000e+10 1.827890e-02 7.673438e-02 9.742383e-01 -1.505846e-01 9.742393e-01 -1.505886e-01 1.827485e-02 7.673860e-02
1.930000e+10 1.834769e-02 7.691711e-02 9.741549e-01 -1.509578e-01 9.741557e-01 -1.509619e-01 1.834379e-02 7.692139e-02
1.935000e+10 1.841659e-02 7.709980e-02 9.740714e-01 -1.513310e-01 9.740719e-01 -1.513351e-01 1.841284e-02 7.710412e-02
1.940000e+10 1.848558e-02 7.728244e-02 9.739876e-01 -1.517041e-01 9.739880e-01 -1.517083e-01 1.848198e-02 7.728680e-02
1.945000e+10 1.855468e-02 7.746502e-02 9.739037e-01 -1.520772e-01 9.739038e-01 -1.520814e-01 1.855123e-02 7.746941e-02
1.950000e+10 1.862387e-02 7.764756e-02 9.738196e-01 -1.524503e-01 9.738195e-01 -1.524545e-01 1.862059e-02 7.765197e-02
1.955000e+10 1.869317e-02 7.783006e-02 9.737354e-01 -1.528233e-01 9.737350e-01 -1.528275e-01 1.869004e-02 7.783448e-02
1.960000e+10 1.876256e-02 7.801251e-02 9.736509e-01 -1.531963e-01 9.736504e-01 -1.532005e-01 1.875959e-02 7.801693e-02
1.965000e+10 1.883206e-02 7.819491e-02 9.735663e-01 -1.535692e-01 9.735655e-01 -1.535734e-01 1.882925e-02 7.819933e-02
1.970000e+10 1.890166e-02 7.837727e-02 9.734815e-01 -1.539422e-01 9.734805e-01 -1.539463e-01 1.889901e-02 7.838167e-02
1.975000e+10 1.897136e-02 7.855959e-02 9.733966e-01 -1.543150e-01 9.733954e-01 -1.543191e-01 1.896886e-02 7.856397e-02
1.980000e+10 1.904116e-02 7.874187e-02 9.733114e-01 -1.546879e-01 9.733100e-01 -1.546919e-01 1.903882e-02 7.874621e-02
1.985000e+10 1.911106e-02 7.892411e-02 9.732261e-01 -1.550607e-01 9.732245e-01 -1.550647e-01 1.910887e-02 7.892841e-02
1.990000e+10 1.918107e-02 7.910631e-02 9.731406e-01 -1.554334e-01 9.731388e-01 -1.554373e-01 1.917903e-02 7.911056e-02
1.995000e+10 1.925117e-02 7.928848e-02 9.730550e-01 -1.558061e-01 9.730529e-01 -1.558100e-01 1.924929e-02 7.929266e-02
2.000000e+10 1.932138e-02 7.947060e-02 9.729692e-01 -1.561788e-01 9.729668e-01 -1.561825e-01 1.931964e-02 7.947471e-02
2.005000e+10 1.939169e-02 7.965269e-02 9.728832e-01 -1.565514e-01 9.728806e-01 -1.565550e-01 1.939010e-02 7.965673e-02
2.010000e+10 1.946211e-02 7.983475e-02 9.727970e-01 -1.569240e-01 9.727943e-01 -1.569275e-01 1.946065e-02 7.983869e-02
2.015000e+10 1.953263e-02 8.001677e-02 9.727106e-01 -1.572965e-01 9.727077e-01 -1.572999e-01 1.953131e-02 8.002062e-02
2.020000e+10 1.960325e-02 8.019876e-02 9.726241e-01 -1.576689e-01 9.726210e-01 -1.576722e-01 1.960206e-02 8.020250e-02
2.025000e+10 1.967398e-02 8.038072e-02 9.725374e-01 -1.580414e-01 9.725341e-01 -1.580445e-01 1.967292e-02 8.038435e-02
2.030000e+10 1.974482e-02 8.056265e-02 9.724505e-01 -1.584137e-01 9.724471e-01 -1.584167e-01 1.974387e-02 8.056615e-02
2.035000e+10 1.981576e-02 8.074455e-02 9.723635e-01 -1.587861e-01 9.723598e-01 -1.587888e-01 1.981493e-02 8.074792e-02
2.040000e+10 1.988681e-02 8.092641e-02 9.722763e-01 -1.591583e-01 9.722725e-01 -1.591609e-01 1.988608e-02 8.092965e-02
2.045000e+10 1.995797e-02 8.110825e-02 9.721889e-01 -1.595305e-01 9.721849e-01 -1.595329e-01 1.995734e-02 8.111134e-02
2.050000e+10 2.002923e-02 8.129006e-02 9.721013e-01 -1.599027e-01 9.720972e-01 -1.599049e-01 2.002870e-02 8.129300e-02
2.055000e+10 2.010061e-02 8.147185e-02 9.720136e-01 -1.602748e-01 9.720094e-01 -1.602768e-01 2.010016e-02 8.147463e-02
2.060000e+10 2.017210e-02 8.165360e-02 9.719257e-01 -1.606468e-01 9.719214e-01 -1.606486e-01 2.017173e-02 8.165622e-02
2.065000e+10 2.024370e-02 8.183533e-02 9.718377e-01 -1.610188e-01 9.718332e-01 -1.610203e-01 2.024340e-02 8.183778e-02
2.070000e+10 2.031542e-02 8.201703e-02 9.717495e-01 -1.613907e-01 9.717449e-01 -1.613920e-01 2.031517e-02 8.201931e-02
2.075000e+10 2.038724e-02 8.219871e-02 9.716611e-01 -1.617626e-01 9.716564e-01 -1.617637e-01 2.038705e-02 8.220081e-02
2.080000e+10 2.045919e-02 8.238037e-02 9.715725e-01 -1.621344e-01 9.715678e-01 -1.621352e-01 2.045903e-02 8.238228e-02
2.085000e+10 2.053125e-02 8.256199e-02 9.714838e-01 -1.625061e-01 9.714790e-01 -1.625067e-01 2.053112e-02 8.256372e-02
2.090000e+10 2.060342e-02 8.274360e-02 9.713949e-01 -1.628778e-01 9.713901e-01 -1.628782e-01 2.060332e-02 8.274513e-02
2.095000e+10 2.067572e-02 8.292517e-02 9.713059e-01 -1.632494e-01 9.713010e-01 -1.632495e-01 2.067562e-02 8.292651e-02
2.100000e+10 2.074813e-02 8.310673e-02 9.712167e-01 -1.636210e-01 9.712118e-01 -1.636208e-01 2.074803e-02 8.310787e-02
2.105000e+10 2.082066e-02 8.328826e-02 9.711274e-01 -1.639925e-01 9.711224e-01 -1.639920e-01 2.082056e-02 8.328920e-02
2.110000e+10 2.089332e-02 8.346977e-02 9.710379e-01 -1.643639e-01 9.710329e-01 -1.643632e-01 2.089319e-02 8.347050e-02
2.115000e+10 2.096609e-02 8.365125e-02 9.709482e-01 -1.647353e-01 9.709433e-01 -1.647343e-01 2.096593e-02 8.365179e-02
2.120000e+10 2.103899e-02 8.383270e-02 9.708584e-01 -1.651066e-01 9.708535e-01 -1.651053e-01 2.103879e-02 8.383304e-02
2.125000e+10 2.111202e-02 8.401414e-02 9.707684e-01 -1.654778e-01 9.707636e-01 -1.654763e-01 2.111176e-02 8.401427e-02
2.130000e+10 2.118517e-02 8.419555e-02 9.706783e-01 -1.658490e-01 9.706735e-01 -1.658472e-01 2.118485e-02 8.419548e-02
2.135000e+10 2.125845e-02 8.437693e-02 9.705881e-01 -1.662201e-01 9.705833e-01 -1.662180e-01 2.125805e-02 8.437666e-02
2.140000e+10 2.133185e-02 8.455829e-02 9.704976e-01 -1.665911e-01 9.704930e-01 -1.665888e-01 2.133137e-02 8.455782e-02
2.145000e+10 2.140539e-02 8.473962e-02 9.704071e-01 -1.669621e-01 9.704025e-01 -1.669595e-01 2.140480e-02 8.473896e-02
2.150000e+10 2.147905e-02 8.492092e-02 9.703164e-01 -1.673330e-01 9.703119e-01 -1.673301e-01 2.147836e-02 8.492007e-02
2.155000e+10 2.155285e-02 8.510220e-02 9.702255e-01 -1.677038e-01 9.702212e-01 -1.677007e-01 2.155203e-02 8.510116e-02
2.160000e+10 2.162678e-02 8.528345e-02 9.701345e-01 -1.680745e-01 9.701303e-01 -1.680712e-01 2.162583e-02 8.528223e-02
2.165000e+10 2.170084e-02 8.546468e-02 9.700434e-01 -1.684452e-01 9.700394e-01 -1.684417e-01 2.169975e-02 8.546327e-02
2.170000e+10 2.177503e-02 8.564587e-02 9.699521e-01 -1.688159e-01 9.699483e-01 -1.688121e-01 2.177379e-02 8.564429e-02
2.175000e+10 2.184936e-02 8.582704e-02 9.698607e-01 -1.691864e-01 9.698570e-01 -1.691824e-01 2.184796e-02 8.582529e-02
2.180000e+10 2.192382e-02 8.600817e-02 9.697692e-01 -1.695569e-01 9.697657e-01 -1.695527e-01 2.192225e-02 8.600626e-02
2.185000e+10 2.199843e-02 8.618928e-02 9.696775e-01 -1.699274e-01 9.696742e-01 -1.699229e-01 2.199667e-02 8.618721e-02
2.190000e+10 2.207317e-02 8.637035e-02 9.695857e-01 -1.702977e-01 9.695826e-01 -1.702931e-01 2.207122e-02 8.636813e-02
2.195000e+10 2.214804e-02 8.655139e-02 9.694937e-01 -1.706680e-01 9.694909e-01 -1.706632e-01 2.214590e-02 8.654903e-02
2.200000e+10 2.222306e-02 8.673239e-02 9.694017e-01 -1.710383e-01 9.693990e-01 -1.710333e-01 2.222071e-02 8.672990e-02
2.205000e+10 2.229822e-02 8.691336e-02 9.693094e-01 -1.714085e-01 9.693071e-01 -1.714033e-01 2.229565e-02 8.691075e-02
2.210000e+10 2.237352e-02 8.709430e-02 9.692171e-01 -1.717786e-01 9.692150e-01 -1.717732e-01 2.237072e-02 8.709157e-02
2.215000e+10 2.244895e-02 8.727519e-02 9.691246e-01 -1.721486e-01 9.691228e-01 -1.721432e-01 2.244593e-02 8.727236e-02
2.220000e+10 2.252453e-02 8.745605e-02 9.690321e-01 -1.725186e-01 9.690305e-01 -1.725130e-01 2.252127e-02 8.745313e-02
2.225000e+10 2.260026e-02 8.763687e-02 9.689393e-01 -1.728886e-01 9.689381e-01 -1.728828e-01 2.259674e-02 8.763386e-02
2.230000e+10 2.267612e-02 8.781765e-02 9.688465e-01 -1.732584e-01 9.688455e-01 -1.732526e-01 2.267236e-02 8.781457e-02
2.235000e+10 2.275213e-02 8.799838e-02 9.687535e-01 -1.736283e-01 9.687529e-01 -1.736223e-01 2.274811e-02 8.799524e-02
2.240000e+10 2.282828e-02 8.817907e-02 9.686605e-01 -1.739980e-01 9.686601e-01 -1.739920e-01 2.282400e-02 8.817589e-02
2.245000e+10 2.290458e-02 8.835972e-02 9.685673e-01 -1.743677e-01 9.685672e-01 -1.743617e-01 2.290002e-02 8.835650e-02
2.250000e+10 2.298102e-02 8.854032e-02 9.684739e-01 -1.747374e-01 9.684742e-01 -1.747313e-01 2.297619e-02 8.853708e-02
2.255000e+10 2.305761e-02 8.872087e-02 9.683805e-01 -1.751070e-01 9.683811e-01 -1.751009e-01 2.305250e-02 8.871762e-02
2.260000e+10 2.313434e-02 8.890138e-02 9.682869e-01 -1.754765e-01 9.682878e-01 -1.754704e-01 2.312896e-02 8.889813e-02
2.265000e+10 2.321121e-02 8.908183e-02 9.681933e-01 -1.758460e-01 9.681945e-01 -1.758399e-01 2.320555e-02 8.907860e-02
2.270000e+10 2.328823e-02 8.926223e-02 9.680995e-01 -1.762155e-01 9.681010e-01 -1.762094e-01 2.328229e-02 8.925903e-02
2.275000e+10 2.336539e-02 8.944258e-02 9.680056e-01 -1.765849e-01 9.680074e-01 -1.765788e-01 2.335917e-02 8.943942e-02
2.280000e+10 2.344270e-02 8.962287e-02 9.679115e-01 -1.769542e-01 9.679138e-01 -1.769482e-01 2.343620e-02 8.961977e-02
2.285000e+10 2.352015e-02 8.980310e-02 9.678174e-01 -1.773235e-01 9.678199e-01 -1.773176e-01 2.351337e-02 8.980007e-02
2.290000e+10 2.359775e-02 8.998328e-02 9.677231e-01 -1.776928e-01 9.677260e-01 -1.776870e-01 2.359069e-02 8.998034e-02
2.295000e+10 2.367549e-02 9.016340e-02 9.676288e-01 -1.780620e-01 9.676320e-01 -1.780563e-01 2.366816e-02 9.016056e-02
2.300000e+10 2.375337e-02 9.034346e-02 9.675343e-01 -1.784312e-01 9.675378e-01 -1.784256e-01 2.374577e-02 9.034073e-02
2.305000e+10 2.383140e-02 9.052345e-02 9.674397e-01 -1.788003e-01 9.674435e-01 -1.787949e-01 2.382353e-02 9.052085e-02
2.310000e+10 2.390957e-02 9.070339e-02 9.673450e-01 -1.791694e-01 9.673491e-01 -1.791642e-01 2.390143e-02 9.070092e-02
2.315000e+10 2.398788e-02 9.088325e-02 9.672502e-01 -1.795385e-01 9.672546e-01 -1.795335e-01 2.397948e-02 9.088095e-02
2.320000e+10 2.406633e-02 9.106305e-02 9.671552e-01 -1.799076e-01 9.671600e-01 -1.799027e-01 2.405768e-02 9.106092e-02
2.325000e+10 2.414492e-02 9.124279e-02 9.670602e-01 -1.802766e-01 9.670652e-01 -1.802719e-01 2.413603e-02 9.124083e-02
2.330000e+10 2.422366e-02 9.142245e-02 9.669650e-01 -1.806455e-01 9.669703e-01 -1.806411e-01 2.421452e-02 9.142069e-02
2.335000e+10 2.430253e-02 9.160204e-02 9.668697e-01 -1.810145e-01 9.668753e-01 -1.810103e-01 2.429317e-02 9.160049e-02
2.340000e+10 2.438154e-02 9.178157e-02 9.667743e-01 -1.813834e-01 9.667801e-01 -1.813795e-01 2.437196e-02 9.178023e-02
2.345000e+10 2.446069e-02 9.196101e-02 9.666788e-01 -1.817523e-01 9.666848e-01 -1.817487e-01 2.445089e-02 9.195991e-02
2.350000e+10 2.453997e-02 9.214039e-02 9.665831e-01 -1.821212e-01 9.665894e-01 -1.821179e-01 2.452997e-02 9.213953e-02
2.355000e+10 2.461939e-02 9.231969e-02 9.664874e-01 -1.824901e-01 9.664939e-01 -1.824871e-01 2.460920e-02 9.231908e-02
2.360000e+10 2.469895e-02 9.249891e-02 9.663915e-01 -1.828589e-01 9.663982e-01 -1.828562e-01 2.468858e-02 9.249857e-02
2.365000e+10 2.477864e-02 9.267806e-02 9.662955e-01 -1.832277e-01 9.663024e-01 -1.832254e-01 2.476810e-02 9.267799e-02
2.370000e+10 2.485846e-02 9.285712e-02 9.661993e-01 -1.835965e-01 9.662064e-01 -1.835945e-01 2.484777e-02 9.285734e-02
2.375000e+10 2.493841e-02 9.303611e-02 9.661031e-01 -1.839653e-01 9.661104e-01 -1.839637e-01 2.492758e-02 9.303662e-02
2.380000e+10 2.501849e-02 9.321502e-02 9.660067e-01 -1.843341e-01 9.660141e-01 -1.843328e-01 2.500753e-02 9.321583e-02
2.385000e+10 2.509870e-02 9.339384e-02 9.659102e-01 -1.847028e-01 9.659177e-01 -1.847019e-01 2.508763e-02 9.339497e-02
2.390000e+10 2.517904e-02 9.357258e-02 9.658136e-01 -1.850716e-01 9.658212e-01 -1.850711e-01 2.516787e-02 9.357403e-02
2.395000e+10 2.525950e-02 9.375125e-02 9.657168e-01 -1.854403e-01 9.657245e-01 -1.854402e-01 2.524825e-02 9.375302e-02
2.400000e+10 2.534009e-02 9.392982e-02 9.656200e-01 -1.858090e-01 9.656277e-01 -1.858094e-01 2.532878e-02 9.393192e-02
2.405000e+10 2.542080e-02 9.410832e-02 9.655229e-01 -1.861777e-01 9.655307e-01 -1.861785e-01 2.540944e-02 9.411075e-02
2.410000e+10 2.550163e-02 9.428672e-02 9.654258e-01 -1.865465e-01 9.654336e-01 -1.865476e-01 2.549024e-02 9.428950e-02
2.415000e+10 2.558259e-02 9.446505e-02 9.653285e-01 -1.869152e-01 9.653363e-01 -1.869168e-01 2.557118e-02 9.446817e-02
2.420000e+10 2.566366e-02 9.464329e-02 9.652310e-01 -1.872839e-01 9.652388e-01 -1.872859e-01 2.565226e-02 9.464675e-02
2.425000e+10 2.574485e-02 9.482144e-02 9.651335e-01 -1.876526e-01 9.651412e-01 -1.876550e-01 2.573347e-02 9.482525e-02
2.430000e+10 2.582615e-02 9.499951e-02 9.650357e-01 -1.880213e-01 9.650434e-01 -1.880242e-01 2.581481e-02 9.500367e-02
2.435000e+10 2.590758e-02 9.517749e-02 9.649379e-01 -1.883900e-01 9.649454e-01 -1.883933e-01 2.589629e-02 9.518200e-02
2.440000e+10 2.598911e-02 9.535538e-02 9.648398e-01 -1.887587e-01 9.648473e-01 -1.887624e-01 2.597790e-02 9.536024e-02
2.445000e+10 2.607076e-02 9.553319e-02 9.647417e-01 -1.891274e-01 9.647490e-01 -1.891316e-01 2.605964e-02 9.553839e-02
2.450000e+10 2.615251e-02 9.571092e-02 9.646434e-01 -1.894961e-01 9.646505e-01 -1.895007e-01 2.614151e-02 9.571646e-02
2.455000e+10 2.623438e-02 9.588856e-02 9.645449e-01 -1.898648e-01 9.645518e-01 -1.898698e-01 2.622350e-02 9.589444e-02
2.460000e+10 2.631635e-02 9.606611e-02 9.644462e-01 -1.902335e-01 9.644530e-01 -1.902389e-01 2.630563e-02 9.607232e-02
2.465000e+10 2.639843e-02 9.624358e-02 9.643474e-01 -1.906022e-01 9.643539e-01 -1.906080e-01 2.638787e-02 9.625012e-02
2.470000e+10 2.648062e-02 9.642096e-02 9.642485e-01 -1.909709e-01 9.642547e-01 -1.909771e-01 2.647025e-02 9.642782e-02
2.475000e+10 2.656290e-02 9.659826e-02 9.641493e-01 -1.913396e-01 9.641553e-01 -1.913462e-01 2.655274e-02 9.660543e-02
2.480000e+10 2.664530e-02 9.677548e-02 9.640500e-01 -1.917083e-01 9.640557e-01 -1.917153e-01 2.663535e-02 9.678295e-02
2.485000e+10 2.672779e-02 9.695261e-02 9.639505e-01 -1.920770e-01 9.639559e-01 -1.920844e-01 2.671808e-02 9.696038e-02
2.490000e+10 2.681038e-02 9.712966e-02 9.638509e-01 -1.924457e-01 9.638558e-01 -1.924535e-01 2.680093e-02 9.713771e-02
2.495000e+10 2.689307e-02 9.730663e-02 9.637510e-01 -1.928145e-01 9.637556e-01 -1.928225e-01 2.688389e-02 9.731495e-02
2.500000e+10 2.697586e-02 9.748353e-02 9.636510e-01 -1.931832e-01 9.636552e-01 -1.931915e-01 2.696697e-02 9.749210e-02
2.505000e+10 2.705874e-02 9.766034e-02 9.635508e-01 -1.935519e-01 9.635546e-01 -1.935606e-01 2.705016e-02 9.766915e-02
2.510000e+10 2.714172e-02 9.783707e-02 9.634504e-01 -1.939206e-01 9.634538e-01 -1.939296e-01 2.713346e-02 9.784612e-02
2.515000e+10 2.722479e-02 9.801373e-02 9.633498e-01 -1.942893e-01 9.633527e-01 -1.942985e-01 2.721687e-02 9.802299e-02
2.520000e+10 2.730796e-02 9.819031e-02 9.632490e-01 -1.946580e-01 9.632515e-01 -1.946675e-01 2.730039e-02 9.819976e-02
2.525000e+10 2.739122e-02 9.836681e-02 9.631480e-01 -1.950267e-01 9.631500e-01 -1.950364e-01 2.738401e-02 9.837645e-02
2.530000e+10 2.747458e-02 9.854325e-02 9.630468e-01 -1.953955e-01 9.630483e-01 -1.954053e-01 2.746774e-02 9.855304e-02
2.535000e+10 2.755802e-02 9.871961e-02 9.629454e-01 -1.957641e-01 9.629464e-01 -1.957742e-01 2.755157e-02 9.872954e-02
2.540000e+10 2.764156e-02 9.889590e-02 9.628438e-01 -1.961328e-01 9.628443e-01 -1.961430e-01 2.763551e-02 9.890596e-02
2.545000e+10 2.772519e-02 9.907212e-02 9.627420e-01 -1.965015e-01 9.627419e-01 -1.965118e-01 2.771954e-02 9.908228e-02
2.550000e+10 2.780891e-02 9.924828e-02 9.626400e-01 -1.968702e-01 9.626394e-01 -1.968806e-01 2.780368e-02 9.925852e-02
2.555000e+10 2.789272e-02 9.942436e-02 9.625378e-01 -1.972388e-01 9.625365e-01 -1.972493e-01 2.788791e-02 9.943466e-02
2.560000e+10 2.797662e-02 9.960039e-02 9.624353e-01 -1.976075e-01 9.624335e-01 -1.976180e-01 2.797224e-02 9.961072e-02
2.565000e+10 2.806060e-02 9.977635e-02 9.623326e-01 -1.979761e-01 9.623302e-01 -1.979867e-01 2.805666e-02 9.978670e-02
2.570000e+10 2.814468e-02 9.995226e-02 9.622297e-01 -1.983447e-01 9.622268e-01 -1.983552e-01 2.814118e-02 9.996259e-02
2.575000e+10 2.822885e-02 1.001281e-01 9.621266e-01 -1.987133e-01 9.621230e-01 -1.987238e-01 2.822580e-02 1.001384e-01
2.580000e+10 2.831311e-02 1.003039e-01 9.620232e-01 -1.990819e-01 9.620191e-01 -1.990923e-01 2.831050e-02 1.003141e-01
2.585000e+10 2.839746e-02 1.004796e-01 9.619196e-01 -1.994504e-01 9.619149e-01 -1.994607e-01 2.839530e-02 1.004898e-01
2.590000e+10 2.848190e-02 1.006553e-01 9.618158e-01 -1.998189e-01 9.618104e-01 -1.998290e-01 2.848019e-02 1.006653e-01
2.595000e+10 2.856643e-02 1.008309e-01 9.617117e-01 -2.001874e-01 9.617058e-01 -2.001973e-01 2.856517e-02 1.008408e-01
2.600000e+10 2.865106e-02 1.010065e-01 9.616074e-01 -2.005558e-01 9.616009e-01 -2.005656e-01 2.865024e-02 1.010163e-01
2.605000e+10 2.873578e-02 1.011820e-01 9.615028e-01 -2.009243e-01 9.614957e-01 -2.009337e-01 2.873539e-02 1.011916e-01
2.610000e+10 2.882059e-02 1.013575e-01 9.613980e-01 -2.012926e-01 9.613903e-01 -2.013018e-01 2.882064e-02 1.013669e-01
2.615000e+10 2.890550e-02 1.015330e-01 9.612929e-01 -2.016610e-01 9.612847e-01 -2.016699e-01 2.890597e-02 1.015421e-01
2.620000e+10 2.899050e-02 1.017084e-01 9.611876e-01 -2.020292e-01 9.611788e-01 -2.020378e-01 2.899140e-02 1.017172e-01
2.625000e+10 2.907561e-02 1.018837e-01 9.610821e-01 -2.023975e-01 9.610727e-01 -2.024057e-01 2.907691e-02 1.018923e-01
2.630000e+10 2.916081e-02 1.020590e-01 9.609763e-01 -2.027657e-01 9.609664e-01 -2.027734e-01 2.916251e-02 1.020673e-01
2.635000e+10 2.924611e-02 1.022343e-01 9.608702e-01 -2.031338e-01 9.608598e-01 -2.031411e-01 2.924819e-02 1.022422e-01
2.640000e+10 2.933151e-02 1.024096e-01 9.607639e-01 -2.035018e-01 9.607530e-01 -2.035087e-01 2.933397e-02 1.024171e-01
2.645000e+10 2.941702e-02 1.025848e-01 9.606573e-01 -2.038699e-01 9.606459e-01 -2.038762e-01 2.941983e-02 1.025919e-01
2.650000e+10 2.950263e-02 1.027600e-01 9.605505e-01 -2.042378e-01 9.605387e-01 -2.042436e-01 2.950578e-02 1.027667e-01
2.655000e+10 2.958835e-02 1.029351e-01 9.604434e-01 -2.046057e-01 9.604311e-01 -2.046110e-01 2.959182e-02 1.029414e-01
2.660000e+10 2.967418e-02 1.031102e-01 9.603360e-01 -2.049735e-01 9.603234e-01 -2.049782e-01 2.967795e-02 1.031161e-01
2.665000e+10 2.976012e-02 1.032853e-01 9.602284e-01 -2.053412e-01 9.602154e-01 -2.053453e-01 2.976417e-02 1.032907e-01
2.670000e+10 2.984618e-02 1.034604e-01 9.601206e-01 -2.057089e-01 9.601071e-01 -2.057123e-01 2.985049e-02 1.034653e-01
2.675000e+10 2.993235e-02 1.036355e-01 9.600124e-01 -2.060764e-01 9.599987e-01 -2.060792e-01 2.993689e-02 1.036398e-01
2.680000e+10 3.001864e-02 1.038105e-01 9.599040e-01 -2.064439e-01 9.598900e-01 -2.064460e-01 3.002339e-02 1.038143e-01
2.685000e+10 3.010506e-02 1.039855e-01 9.597954e-01 -2.068113e-01 9.597810e-01 -2.068127e-01 3.010999e-02 1.039887e-01
2.690000e+10 3.019159e-02 1.041605e-01 9.596864e-01 -2.071786e-01 9.596719e-01 -2.071792e-01 3.019668e-02 1.041631e-01
2.695000e+10 3.027826e-02 1.043354e-01 9.595772e-01 -2.075458e-01 9.595625e-01 -2.075457e-01 3.028347e-02 1.043375e-01
2.700000e+10 3.036505e-02 1.045104e-01 9.594678e-01 -2.079129e-01 9.594529e-01 -2.079120e-01 3.037036e-02 1.045118e-01
2.705000e+10 3.045198e-02 1.046853e-01 9.593581e-01 -2.082799e-01 9.593431e-01 -2.082782e-01 3.045735e-02 1.046862e-01
2.710000e+10 3.053904e-02 1.048602e-01 9.592481e-01 -2.086468e-01 9.592330e-01 -2.086443e-01 3.054445e-02 1.048604e-01
2.715000e+10 3.062624e-02 1.050351e-01 9.591379e-01 -2.090136e-01 9.591228e-01 -2.090103e-01 3.063165e-02 1.050347e-01
2.720000e+10 3.071358e-02 1.052100e-01 9.590274e-01 -2.093803e-01 9.590123e-01 -2.093761e-01 3.071896e-02 1.052089e-01
2.725000e+10 3.080106e-02 1.053848e-01 9.589166e-01 -2.097468e-01 9.589016e-01 -2.097418e-01 3.080638e-02 1.053831e-01
2.730000e+10 3.088870e-02 1.055597e-01 9.588056e-01 -2.101133e-01 9.587907e-01 -2.101074e-01 3.089391e-02 1.055573e-01
2.735000e+10 3.097648e-02 1.057345e-01 9.586944e-01 -2.104796e-01 9.586795e-01 -2.104729e-01 3.098156e-02 1.057315e-01
2.740000e+10 3.106442e-02 1.059093e-01 9.585829e-01 -2.108458e-01 9.585682e-01 -2.108383e-01 3.106932e-02 1.059056e-01
2.745000e+10 3.115252e-02 1.060841e-01 9.584711e-01 -2.112119e-01 9.584567e-01 -2.112035e-01 3.115720e-02 1.060798e-01
2.750000e+10 3.124077e-02 1.062589e-01 9.583591e-01 -2.115778e-01 9.583449e-01 -2.115686e-01 3.124521e-02 1.062539e-01
2.755000e+10 3.132919e-02 1.064337e-01 9.582468e-01 -2.119436e-01 9.582330e-01 -2.119335e-01 3.133335e-02 1.064280e-01
2.760000e+10 3.141778e-02 1.066085e-01 9.581343e-01 -2.123093e-01 9.581209e-01 -2.122984e-01 3.142161e-02 1.066021e-01
2.765000e+10 3.150654e-02 1.067832e-01 9.580216e-01 -2.126748e-01 9.580085e-01 -2.126631e-01 3.151001e-02 1.067762e-01
2.770000e+10 3.159547e-02 1.069579e-01 9.579086e-01 -2.130402e-01 9.578960e-01 -2.130277e-01 3.159854e-02 1.069503e-01
2.775000e+10 3.168459e-02 1.071326e-01 9.577953e-01 -2.134055e-01 9.577833e-01 -2.133921e-01 3.168722e-02 1.071244e-01
2.780000e+10 3.177388e-02 1.073073e-01 9.576819e-01 -2.137706e-01 9.576704e-01 -2.137565e-01 3.177603e-02 1.072985e-01
2.785000e+10 3.186335e-02 1.074820e-01 9.575682e-01 -2.141356e-01 9.575573e-01 -2.141207e-01 3.186499e-02 1.074726e-01
2.790000e+10 3.195301e-02 1.076566e-01 9.574542e-01 -2.145004e-01 9.574440e-01 -2.144848e-01 3.195410e-02 1.076466e-01
2.795000e+10 3.204287e-02 1.078312e-01 9.573401e-01 -2.148651e-01 9.573306e-01 -2.148487e-01 3.204337e-02 1.078207e-01
2.800000e+10 3.213291e-02 1.080058e-01 9.572257e-01 -2.152296e-01 9.572170e-01 -2.152126e-01 3.213279e-02 1.079948e-01
2.805000e+10 3.222316e-02 1.081804e-01 9.571111e-01 -2.155940e-01 9.571032e-01 -2.155763e-01 3.222237e-02 1.081688e-01
2.810000e+10 3.231360e-02 1.083549e-01 9.569963e-01 -2.159582e-01 9.569892e-01 -2.159399e-01 3.231212e-02 1.083429e-01
2.815000e+10 3.240424e-02 1.085294e-01 9.568812e-01 -2.163223e-01 9.568751e-01 -2.163034e-01 3.240203e-02 1.085169e-01
2.820000e+10 3.249509e-02 1.087039e-01 9.567660e-01 -2.166863e-01 9.567607e-01 -2.166668e-01 3.249212e-02 1.086910e-01
2.825000e+10 3.258615e-02 1.088783e-01 9.566506e-01 -2.170501e-01 9.566463e-01 -2.170301e-01 3.258238e-02 1.088651e-01
2.830000e+10 3.267741e-02 1.090527e-01 9.565349e-01 -2.174137e-01 9.565316e-01 -2.173933e-01 3.267283e-02 1.090391e-01
2.835000e+10 3.276889e-02 1.092271e-01 9.564191e-01 -2.177772e-01 9.564168e-01 -2.177564e-01 3.276346e-02 1.092132e-01
2.840000e+10 3.286059e-02 1.094014e-01 9.563030e-01 -2.181405e-01 9.563019e-01 -2.181193e-01 3.285427e-02 1.093872e-01
2.845000e+10 3.295250e-02 1.095757e-01 9.561868e-01 -2.185037e-01 9.561867e-01 -2.184822e-01 3.294528e-02 1.095613e-01
2.850000e+10 3.304463e-02 1.097499e-01 9.560704e-01 -2.188668e-01 9.560715e-01 -2.188450e-01 3.303648e-02 1.097353e-01
2.855000e+10 3.313698e-02 1.099241e-01 9.559538e-01 -2.192297e-01 9.559560e-01 -2.192077e-01 3.312788e-02 1.099093e-01
2.860000e+10 3.322955e-02 1.100982e-01 9.558370e-01 -2.195924e-01 9.558404e-01 -2.195703e-01 3.321948e-02 1.100834e-01
2.865000e+10 3.332235e-02 1.102723e-01 9.557200e-01 -2.199550e-01 9.557247e-01 -2.199329e-01 3.331129e-02 1.102574e-01
2.870000e+10 3.341537e-02 1.104463e-01 9.556029e-01 -2.203175e-01 9.556088e-01 -2.202953e-01 3.340331e-02 1.104314e-01
2.875000e+10 3.350862e-02 1.106202e-01 9.554856e-01 -2.206798e-01 9.554928e-01 -2.206577e-01 3.349554e-02 1.106054e-01
2.880000e+10 3.360210e-02 1.107941e-01 9.553682e-01 -2.210420e-01 9.553766e-01 -2.210200e-01 3.358799e-02 1.107794e-01
2.885000e+10 3.369580e-02 1.109679e-01 9.552506e-01 -2.214041e-01 9.552602e-01 -2.213823e-01 3.368066e-02 1.109533e-01
2.890000e+10 3.378974e-02 1.111416e-01 9.551328e-01 -2.217660e-01 9.551438e-01 -2.217444e-01 3.377356e-02 1.111273e-01
2.895000e+10 3.388390e-02 1.113153e-01 9.550149e-01 -2.221279e-01 9.550271e-01 -2.221066e-01 3.386667e-02 1.113012e-01
2.900000e+10 3.397829e-02 1.114889e-01 9.548968e-01 -2.224895e-01 9.549104e-01 -2.224686e-01 3.396002e-02 1.114751e-01
2.905000e+10 3.407292e-02 1.116624e-01 9.547786e-01 -2.228511e-01 9.547934e-01 -2.228307e-01 3.405360e-02 1.116490e-01
2.910000e+10 3.416777e-02 1.118358e-01 9.546602e-01 -2.232126e-01 9.546764e-01 -2.231927e-01 3.414742e-02 1.118228e-01
2.915000e+10 3.426285e-02 1.120091e-01 9.545418e-01 -2.235739e-01 9.545591e-01 -2.235546e-01 3.424147e-02 1.119966e-01
2.920000e+10 3.435816e-02 1.121823e-01 9.544231e-01 -2.239351e-01 9.544418e-01 -2.239165e-01 3.433577e-02 1.121704e-01
2.925000e+10 3.445369e-02 1.123554e-01 9.543044e-01 -2.242962e-01 9.543242e-01 -2.242784e-01 3.443030e-02 1.123442e-01
2.930000e+10 3.454946e-02 1.125285e-01 9.541855e-01 -2.246573e-01 9.542066e-01 -2.246403e-01 3.452508e-02 1.125179e-01
2.935000e+10 3.464544e-02 1.127014e-01 9.540665e-01 -2.250182e-01 9.540888e-01 -2.250021e-01 3.462010e-02 1.126915e-01
2.940000e+10 3.474165e-02 1.128742e-01 9.539474e-01 -2.253790e-01 9.539708e-01 -2.253639e-01 3.471537e-02 1.128651e-01
2.945000e+10 3.483808e-02 1.130469e-01 9.538281e-01 -2.257398e-01 9.538527e-01 -2.257257e-01 3.481089e-02 1.130387e-01
2.950000e+10 3.493472e-02 1.132195e-01 9.537088e-01 -2.261005e-01 9.537344e-01 -2.260875e-01 3.490666e-02 1.132122e-01
2.955000e+10 3.503159e-02 1.133920e-01 9.535893e-01 -2.264611e-01 9.536159e-01 -2.264493e-01 3.500268e-02 1.133856e-01
2.960000e+10 3.512866e-02 1.135644e-01 9.534697e-01 -2.268216e-01 9.534973e-01 -2.268111e-01 3.509895e-02 1.135590e-01
2.965000e+10 3.522595e-02 1.137366e-01 9.533500e-01 -2.271821e-01 9.533786e-01 -2.271730e-01 3.519548e-02 1.137323e-01
2.970000e+10 3.532344e-02 1.139087e-01 9.532302e-01 -2.275425e-01 9.532597e-01 -2.275348e-01 3.529225e-02 1.139056e-01
2.975000e+10 3.542114e-02 1.140807e-01 9.531103e-01 -2.279029e-01 9.531406e-01 -2.278966e-01 3.538928e-02 1.140788e-01
2.980000e+10 3.551903e-02 1.142526e-01 9.529903e-01 -2.282632e-01 9.530213e-01 -2.282585e-01 3.548656e-02 1.142518e-01
2.985000e+10 3.561712e-02 1.144243e-01 9.528702e-01 -2.286235e-01 9.529019e-01 -2.286204e-01 3.558409e-02 1.144249e-01
2.990000e+10 3.571541e-02 1.145959e-01 9.527500e-01 -2.289838e-01 9.527823e-01 -2.289823e-01 3.568186e-02 1.145978e-01
2.995000e+10 3.581388e-02 1.147674e-01 9.526297e-01 -2.293440e-01 9.526625e-01 -2.293442e-01 3.577989e-02 1.147706e-01
3.000000e+10 3.591253e-02 1.149387e-01 9.525093e-01 -2.297042e-01 9.525426e-01 -2.297062e-01 3.587816e-02 1.149433e-01
