#   Hz   S  RI   R   50
!
0.000000e+00 6.031833e-02 0.000000e+00 9.327392e-01 0.000000e+00 9.329829e-01 0.000000e+00 6.048209e-02 0.000000e+00
5.000000e+07 6.052720e-02 1.356894e-02 9.325237e-01 -1.422565e-02 9.327666e-01 -1.424480e-02 6.069031e-02 1.355438e-02
1.000000e+08 6.115344e-02 2.712182e-02 9.318775e-01 -2.843449e-02 9.321182e-01 -2.847267e-02 6.131461e-02 2.709281e-02
1.500000e+08 6.219588e-02 4.064266e-02 9.308020e-01 -4.260975e-02 9.310388e-01 -4.266669e-02 6.235383e-02 4.059939e-02
2.000000e+08 6.365258e-02 5.411553e-02 9.292991e-01 -5.673475e-02 9.295306e-01 -5.681007e-02 6.380606e-02 5.405831e-02
2.500000e+08 6.552085e-02 6.752465e-02 9.273718e-01 -7.079298e-02 9.275964e-01 -7.088618e-02 6.566862e-02 6.745388e-02
3.000000e+08 6.779723e-02 8.085443e-02 9.250237e-01 -8.476809e-02 9.252401e-01 -8.487854e-02 6.793809e-02 8.077060e-02
3.500000e+08 7.047753e-02 9.408949e-02 9.222593e-01 -9.864400e-02 9.224661e-01 -9.877097e-02 7.061034e-02 9.399317e-02
4.000000e+08 7.355683e-02 1.072147e-01 9.190838e-01 -1.124049e-01 9.192797e-01 -1.125475e-01 7.368050e-02 1.071066e-01
4.500000e+08 7.702952e-02 1.202152e-01 9.155032e-01 -1.260353e-01 9.156870e-01 -1.261926e-01 7.714300e-02 1.200961e-01
5.000000e+08 8.088928e-02 1.330767e-01 9.115242e-01 -1.395200e-01 9.116947e-01 -1.396911e-01 8.099160e-02 1.329473e-01
5.500000e+08 8.512916e-02 1.457849e-01 9.071541e-01 -1.528445e-01 9.073104e-01 -1.530281e-01 8.521940e-02 1.456461e-01
6.000000e+08 8.974156e-02 1.583262e-01 9.024012e-01 -1.659944e-01 9.025422e-01 -1.661892e-01 8.981890e-02 1.581791e-01
6.500000e+08 9.471827e-02 1.706873e-01 8.972740e-01 -1.789559e-01 8.973990e-01 -1.791608e-01 9.478195e-02 1.705329e-01
7.000000e+08 1.000505e-01 1.828556e-01 8.917819e-01 -1.917157e-01 8.918902e-01 -1.919294e-01 1.000999e-01 1.826950e-01
7.500000e+08 1.057290e-01 1.948188e-01 8.859348e-01 -2.042613e-01 8.860257e-01 -2.044822e-01 1.057634e-01 1.946530e-01
8.000000e+08 1.117438e-01 2.065652e-01 8.797432e-01 -2.165804e-01 8.798162e-01 -2.168072e-01 1.117629e-01 2.063954e-01
8.500000e+08 1.180847e-01 2.180835e-01 8.732179e-01 -2.286615e-01 8.732727e-01 -2.288926e-01 1.180880e-01 2.179110e-01
9.000000e+08 1.247409e-01 2.293634e-01 8.663703e-01 -2.404936e-01 8.664067e-01 -2.407277e-01 1.247281e-01 2.291892e-01
9.500000e+08 1.317013e-01 2.403947e-01 8.592123e-01 -2.520666e-01 8.592301e-01 -2.523021e-01 1.316723e-01 2.402202e-01
1.000000e+09 1.389544e-01 2.511682e-01 8.517561e-01 -2.633708e-01 8.517552e-01 -2.636062e-01 1.389089e-01 2.509946e-01
1.050000e+09 1.464883e-01 2.616752e-01 8.440141e-01 -2.743973e-01 8.439948e-01 -2.746311e-01 1.464265e-01 2.615036e-01
1.100000e+09 1.542909e-01 2.719075e-01 8.359991e-01 -2.851379e-01 8.359616e-01 -2.853686e-01 1.542128e-01 2.717393e-01
1.150000e+09 1.623499e-01 2.818578e-01 8.277243e-01 -2.955849e-01 8.276689e-01 -2.958111e-01 1.622556e-01 2.816940e-01
1.200000e+09 1.706526e-01 2.915192e-01 8.192028e-01 -3.057317e-01 8.191301e-01 -3.059519e-01 1.705425e-01 2.913611e-01
1.250000e+09 1.791864e-01 3.008857e-01 8.104482e-01 -3.155720e-01 8.103587e-01 -3.157850e-01 1.790608e-01 3.007344e-01
1.300000e+09 1.879384e-01 3.099518e-01 8.014739e-01 -3.251003e-01 8.013684e-01 -3.253048e-01 1.877977e-01 3.098085e-01
1.350000e+09 1.968956e-01 3.187127e-01 7.922936e-01 -3.343121e-01 7.921728e-01 -3.345068e-01 1.967404e-01 3.185784e-01
1.400000e+09 2.060450e-01 3.271643e-01 7.829209e-01 -3.432032e-01 7.827858e-01 -3.433870e-01 2.058759e-01 3.270400e-01
1.450000e+09 2.153737e-01 3.353031e-01 7.733696e-01 -3.517703e-01 7.732211e-01 -3.519421e-01 2.151912e-01 3.351898e-01
1.500000e+09 2.248685e-01 3.431263e-01 7.636533e-01 -3.600107e-01 7.634925e-01 -3.601695e-01 2.246735e-01 3.430247e-01
1.550000e+09 2.345165e-01 3.506315e-01 7.537855e-01 -3.679225e-01 7.536135e-01 -3.680675e-01 2.343098e-01 3.505427e-01
1.600000e+09 2.443050e-01 3.578173e-01 7.437797e-01 -3.755042e-01 7.435977e-01 -3.756346e-01 2.440874e-01 3.577418e-01
1.650000e+09 2.542211e-01 3.646826e-01 7.336491e-01 -3.827552e-01 7.334584e-01 -3.828703e-01 2.539935e-01 3.646212e-01
1.700000e+09 2.642523e-01 3.712269e-01 7.234070e-01 -3.896754e-01 7.232088e-01 -3.897745e-01 2.640156e-01 3.711801e-01
1.750000e+09 2.743861e-01 3.774504e-01 7.130662e-01 -3.962651e-01 7.128619e-01 -3.963480e-01 2.741414e-01 3.774188e-01
1.800000e+09 2.846104e-01 3.833537e-01 7.026394e-01 -4.025256e-01 7.024303e-01 -4.025918e-01 2.843586e-01 3.833378e-01
1.850000e+09 2.949133e-01 3.889381e-01 6.921391e-01 -4.084584e-01 6.919265e-01 -4.085076e-01 2.946553e-01 3.889382e-01
1.900000e+09 3.052829e-01 3.942053e-01 6.815772e-01 -4.140657e-01 6.813627e-01 -4.140978e-01 3.050199e-01 3.942217e-01
1.950000e+09 3.157078e-01 3.991574e-01 6.709658e-01 -4.193500e-01 6.707506e-01 -4.193651e-01 3.154409e-01 3.991902e-01
2.000000e+09 3.261770e-01 4.037971e-01 6.603162e-01 -4.243145e-01 6.601017e-01 -4.243127e-01 3.259071e-01 4.038465e-01
2.050000e+09 3.366796e-01 4.081274e-01 6.496396e-01 -4.289627e-01 6.494271e-01 -4.289442e-01 3.364078e-01 4.081934e-01
2.100000e+09 3.472052e-01 4.121518e-01 6.389467e-01 -4.332987e-01 6.387376e-01 -4.332637e-01 3.469325e-01 4.122343e-01
2.150000e+09 3.577435e-01 4.158742e-01 6.282480e-01 -4.373267e-01 6.280435e-01 -4.372756e-01 3.574709e-01 4.159731e-01
2.200000e+09 3.682848e-01 4.192986e-01 6.175534e-01 -4.410514e-01 6.173547e-01 -4.409849e-01 3.680133e-01 4.194138e-01
2.250000e+09 3.788198e-01 4.224298e-01 6.068724e-01 -4.444779e-01 6.066808e-01 -4.443965e-01 3.785503e-01 4.225608e-01
2.300000e+09 3.893393e-01 4.252724e-01 5.962144e-01 -4.476116e-01 5.960309e-01 -4.475160e-01 3.890728e-01 4.254190e-01
2.350000e+09 3.998347e-01 4.278316e-01 5.855879e-01 -4.504581e-01 5.854136e-01 -4.503491e-01 3.995720e-01 4.279933e-01
2.400000e+09 4.102978e-01 4.301127e-01 5.750014e-01 -4.530231e-01 5.748372e-01 -4.529016e-01 4.100397e-01 4.302891e-01
2.450000e+09 4.207206e-01 4.321213e-01 5.644627e-01 -4.553129e-01 5.643096e-01 -4.551797e-01 4.204680e-01 4.323118e-01
2.500000e+09 4.310959e-01 4.338631e-01 5.539793e-01 -4.573336e-01 5.538380e-01 -4.571898e-01 4.308494e-01 4.340672e-01
2.550000e+09 4.414164e-01 4.353440e-01 5.435582e-01 -4.590917e-01 5.434295e-01 -4.589383e-01 4.411766e-01 4.355611e-01
2.600000e+09 4.516754e-01 4.365702e-01 5.332061e-01 -4.605937e-01 5.330906e-01 -4.604318e-01 4.514431e-01 4.367995e-01
2.650000e+09 4.618668e-01 4.375478e-01 5.229290e-01 -4.618464e-01 5.228273e-01 -4.616771e-01 4.616424e-01 4.377887e-01
2.700000e+09 4.719847e-01 4.382832e-01 5.127329e-01 -4.628565e-01 5.126453e-01 -4.626810e-01 4.717686e-01 4.385349e-01
2.750000e+09 4.820234e-01 4.387826e-01 5.026230e-01 -4.636307e-01 5.025499e-01 -4.634502e-01 4.818161e-01 4.390444e-01
2.800000e+09 4.919779e-01 4.390527e-01 4.926043e-01 -4.641761e-01 4.925460e-01 -4.639917e-01 4.917798e-01 4.393237e-01
2.850000e+09 5.018434e-01 4.390997e-01 4.826814e-01 -4.644994e-01 4.826380e-01 -4.643124e-01 5.016547e-01 4.393792e-01
2.900000e+09 5.116156e-01 4.389303e-01 4.728584e-01 -4.646075e-01 4.728300e-01 -4.644191e-01 5.114365e-01 4.392175e-01
2.950000e+09 5.212903e-01 4.385509e-01 4.631392e-01 -4.645073e-01 4.631256e-01 -4.643187e-01 5.211209e-01 4.388450e-01
3.000000e+09 5.308639e-01 4.379680e-01 4.535272e-01 -4.642057e-01 4.535284e-01 -4.640180e-01 5.307044e-01 4.382682e-01
3.050000e+09 5.403330e-01 4.371880e-01 4.440254e-01 -4.637093e-01 4.440412e-01 -4.635237e-01 5.401833e-01 4.374936e-01
3.100000e+09 5.496946e-01 4.362174e-01 4.346368e-01 -4.630249e-01 4.346667e-01 -4.628425e-01 5.495546e-01 4.365275e-01
3.150000e+09 5.589459e-01 4.350624e-01 4.253635e-01 -4.621591e-01 4.254073e-01 -4.619810e-01 5.588156e-01 4.353763e-01
3.200000e+09 5.680845e-01 4.337294e-01 4.162079e-01 -4.611183e-01 4.162650e-01 -4.609456e-01 5.679637e-01 4.340464e-01
3.250000e+09 5.771083e-01 4.322245e-01 4.071717e-01 -4.599091e-01 4.072415e-01 -4.597426e-01 5.769966e-01 4.325438e-01
3.300000e+09 5.860153e-01 4.305538e-01 3.982565e-01 -4.585376e-01 3.983384e-01 -4.583783e-01 5.859126e-01 4.308748e-01
3.350000e+09 5.948040e-01 4.287232e-01 3.894636e-01 -4.570100e-01 3.895569e-01 -4.568588e-01 5.947099e-01 4.290453e-01
3.400000e+09 6.034730e-01 4.267387e-01 3.807940e-01 -4.553322e-01 3.808979e-01 -4.551900e-01 6.033870e-01 4.270612e-01
3.450000e+09 6.120211e-01 4.246058e-01 3.722484e-01 -4.535103e-01 3.723622e-01 -4.533777e-01 6.119429e-01 4.249284e-01
3.500000e+09 6.204474e-01 4.223304e-01 3.638275e-01 -4.515497e-01 3.639503e-01 -4.514275e-01 6.203765e-01 4.226523e-01
3.550000e+09 6.287513e-01 4.199177e-01 3.555317e-01 -4.494562e-01 3.556625e-01 -4.493449e-01 6.286872e-01 4.202386e-01
3.600000e+09 6.369321e-01 4.173732e-01 3.473611e-01 -4.472350e-01 3.474990e-01 -4.471351e-01 6.368743e-01 4.176927e-01
3.650000e+09 6.449896e-01 4.147020e-01 3.393158e-01 -4.448914e-01 3.394598e-01 -4.448033e-01 6.449376e-01 4.150196e-01
3.700000e+09 6.529237e-01 4.119091e-01 3.313955e-01 -4.424303e-01 3.315447e-01 -4.423544e-01 6.528767e-01 4.122247e-01
3.750000e+09 6.607342e-01 4.089994e-01 3.236000e-01 -4.398567e-01 3.237533e-01 -4.397933e-01 6.606918e-01 4.093127e-01
3.800000e+09 6.684213e-01 4.059777e-01 3.159288e-01 -4.371753e-01 3.160852e-01 -4.371245e-01 6.683829e-01 4.062884e-01
3.850000e+09 6.759854e-01 4.028485e-01 3.083813e-01 -4.343906e-01 3.085398e-01 -4.343524e-01 6.759503e-01 4.031565e-01
3.900000e+09 6.834267e-01 3.996162e-01 3.009569e-01 -4.315068e-01 3.011165e-01 -4.314814e-01 6.833943e-01 3.999215e-01
3.950000e+09 6.907458e-01 3.962852e-01 2.936549e-01 -4.285283e-01 2.938145e-01 -4.285156e-01 6.907156e-01 3.965877e-01
4.000000e+09 6.979433e-01 3.928595e-01 2.864743e-01 -4.254590e-01 2.866330e-01 -4.254588e-01 6.979145e-01 3.931592e-01
4.050000e+09 7.050199e-01 3.893431e-01 2.794142e-01 -4.223028e-01 2.795710e-01 -4.223149e-01 7.049920e-01 3.896401e-01
4.100000e+09 7.119762e-01 3.857398e-01 2.724736e-01 -4.190633e-01 2.726275e-01 -4.190874e-01 7.119487e-01 3.860342e-01
4.150000e+09 7.188132e-01 3.820533e-01 2.656514e-01 -4.157441e-01 2.658017e-01 -4.157799e-01 7.187854e-01 3.823453e-01
4.200000e+09 7.255318e-01 3.782871e-01 2.589466e-01 -4.123485e-01 2.590923e-01 -4.123956e-01 7.255032e-01 3.785770e-01
4.250000e+09 7.321329e-01 3.744447e-01 2.523581e-01 -4.088799e-01 2.524982e-01 -4.089377e-01 7.321030e-01 3.747326e-01
4.300000e+09 7.386174e-01 3.705292e-01 2.458845e-01 -4.053412e-01 2.460185e-01 -4.054092e-01 7.385857e-01 3.708155e-01
4.350000e+09 7.449865e-01 3.665439e-01 2.395248e-01 -4.017354e-01 2.396519e-01 -4.018130e-01 7.449525e-01 3.668289e-01
4.400000e+09 7.512411e-01 3.624916e-01 2.332778e-01 -3.980653e-01 2.333973e-01 -3.981519e-01 7.512045e-01 3.627757e-01
4.450000e+09 7.573824e-01 3.583753e-01 2.271422e-01 -3.943337e-01 2.272535e-01 -3.944285e-01 7.573427e-01 3.586589e-01
4.500000e+09 7.634114e-01 3.541978e-01 2.211169e-01 -3.905430e-01 2.212193e-01 -3.906453e-01 7.633683e-01 3.544814e-01
4.550000e+09 7.693293e-01 3.499616e-01 2.152005e-01 -3.866957e-01 2.152938e-01 -3.868047e-01 7.692825e-01 3.502456e-01
4.600000e+09 7.751372e-01 3.456694e-01 2.093919e-01 -3.827941e-01 2.094756e-01 -3.829091e-01 7.750864e-01 3.459543e-01
4.650000e+09 7.808362e-01 3.413235e-01 2.036900e-01 -3.788405e-01 2.037636e-01 -3.789607e-01 7.807812e-01 3.416098e-01
4.700000e+09 7.864274e-01 3.369263e-01 1.980935e-01 -3.748370e-01 1.981569e-01 -3.749615e-01 7.863680e-01 3.372145e-01
4.750000e+09 7.919120e-01 3.324800e-01 1.926013e-01 -3.707857e-01 1.926542e-01 -3.709135e-01 7.918481e-01 3.327706e-01
4.800000e+09 7.972911e-01 3.279868e-01 1.872123e-01 -3.666884e-01 1.872545e-01 -3.668188e-01 7.972226e-01 3.282804e-01
4.850000e+09 8.025658e-01 3.234487e-01 1.819252e-01 -3.625470e-01 1.819567e-01 -3.626792e-01 8.024926e-01 3.237458e-01
4.900000e+09 8.077372e-01 3.188677e-01 1.767392e-01 -3.583634e-01 1.767599e-01 -3.584965e-01 8.076592e-01 3.191689e-01
4.950000e+09 8.128063e-01 3.142458e-01 1.716530e-01 -3.541393e-01 1.716631e-01 -3.542724e-01 8.127237e-01 3.145515e-01
5.000000e+09 8.177743e-01 3.095846e-01 1.666656e-01 -3.498762e-01 1.666652e-01 -3.500085e-01 8.176871e-01 3.098955e-01
5.050000e+09 8.226421e-01 3.048861e-01 1.617762e-01 -3.455759e-01 1.617654e-01 -3.457066e-01 8.225505e-01 3.052027e-01
5.100000e+09 8.274108e-01 3.001520e-01 1.569836e-01 -3.412398e-01 1.569627e-01 -3.413681e-01 8.273149e-01 3.004747e-01
5.150000e+09 8.320815e-01 2.953838e-01 1.522869e-01 -3.368694e-01 1.522562e-01 -3.369946e-01 8.319815e-01 2.957131e-01
5.200000e+09 8.366550e-01 2.905831e-01 1.476852e-01 -3.324663e-01 1.476451e-01 -3.325876e-01 8.365512e-01 2.909196e-01
5.250000e+09 8.411325e-01 2.857516e-01 1.431777e-01 -3.280317e-01 1.431285e-01 -3.281485e-01 8.410250e-01 2.860956e-01
5.300000e+09 8.455148e-01 2.808906e-01 1.387634e-01 -3.235670e-01 1.387056e-01 -3.236786e-01 8.454040e-01 2.812427e-01
5.350000e+09 8.498028e-01 2.760018e-01 1.344415e-01 -3.190736e-01 1.343757e-01 -3.191794e-01 8.496892e-01 2.763622e-01
5.400000e+09 8.539976e-01 2.710863e-01 1.302113e-01 -3.145528e-01 1.301379e-01 -3.146522e-01 8.538813e-01 2.714555e-01
5.450000e+09 8.580999e-01 2.661457e-01 1.260718e-01 -3.100058e-01 1.259915e-01 -3.100984e-01 8.579815e-01 2.665240e-01
5.500000e+09 8.621108e-01 2.611813e-01 1.220224e-01 -3.054339e-01 1.219358e-01 -3.055191e-01 8.619906e-01 2.615690e-01
5.550000e+09 8.660310e-01 2.561944e-01 1.180623e-01 -3.008383e-01 1.179700e-01 -3.009158e-01 8.659094e-01 2.565918e-01
5.600000e+09 8.698614e-01 2.511862e-01 1.141908e-01 -2.962202e-01 1.140934e-01 -2.962896e-01 8.697389e-01 2.515935e-01
5.650000e+09 8.736028e-01 2.461580e-01 1.104071e-01 -2.915808e-01 1.103054e-01 -2.916419e-01 8.734800e-01 2.465754e-01
5.700000e+09 8.772561e-01 2.411110e-01 1.067106e-01 -2.869213e-01 1.066053e-01 -2.869737e-01 8.771333e-01 2.415388e-01
5.750000e+09 8.808221e-01 2.360464e-01 1.031005e-01 -2.822428e-01 1.029923e-01 -2.822864e-01 8.806998e-01 2.364846e-01
5.800000e+09 8.843015e-01 2.309654e-01 9.957630e-02 -2.775464e-01 9.946584e-02 -2.775811e-01 8.841803e-01 2.314141e-01
5.850000e+09 8.876952e-01 2.258691e-01 9.613718e-02 -2.728334e-01 9.602524e-02 -2.728591e-01 8.875755e-01 2.263285e-01
5.900000e+09 8.910040e-01 2.207587e-01 9.278255e-02 -2.681047e-01 9.266983e-02 -2.681214e-01 8.908863e-01 2.212287e-01
5.950000e+09 8.942286e-01 2.156352e-01 8.951174e-02 -2.633616e-01 8.939895e-02 -2.633693e-01 8.941134e-01 2.161159e-01
6.000000e+09 8.973698e-01 2.104999e-01 8.632410e-02 -2.586050e-01 8.621195e-02 -2.586040e-01 8.972576e-01 2.109910e-01
6.050000e+09 9.004284e-01 2.053537e-01 8.321900e-02 -2.538362e-01 8.310815e-02 -2.538265e-01 9.003197e-01 2.058553e-01
6.100000e+09 9.034051e-01 2.001976e-01 8.019578e-02 -2.490562e-01 8.008690e-02 -2.490380e-01 9.033003e-01 2.007096e-01
6.150000e+09 9.063006e-01 1.950329e-01 7.725379e-02 -2.442661e-01 7.714753e-02 -2.442396e-01 9.062002e-01 1.955551e-01
6.200000e+09 9.091159e-01 1.898604e-01 7.439239e-02 -2.394669e-01 7.428935e-02 -2.394325e-01 9.090203e-01 1.903926e-01
6.250000e+09 9.118515e-01 1.846812e-01 7.161093e-02 -2.346597e-01 7.151168e-02 -2.346177e-01 9.117611e-01 1.852232e-01
6.300000e+09 9.145083e-01 1.794962e-01 6.890873e-02 -2.298456e-01 6.881383e-02 -2.297963e-01 9.144235e-01 1.800478e-01
6.350000e+09 9.170870e-01 1.743065e-01 6.628514e-02 -2.250255e-01 6.619510e-02 -2.249695e-01 9.170082e-01 1.748675e-01
6.400000e+09 9.195883e-01 1.691131e-01 6.373949e-02 -2.202006e-01 6.365478e-02 -2.201382e-01 9.195159e-01 1.696830e-01
6.450000e+09 9.220131e-01 1.639168e-01 6.127108e-02 -2.153717e-01 6.119214e-02 -2.153035e-01 9.219473e-01 1.644954e-01
6.500000e+09 9.243621e-01 1.587185e-01 5.887923e-02 -2.105400e-01 5.880645e-02 -2.104664e-01 9.243033e-01 1.593056e-01
6.550000e+09 9.266360e-01 1.535193e-01 5.656324e-02 -2.057064e-01 5.649696e-02 -2.056280e-01 9.265844e-01 1.541144e-01
6.600000e+09 9.288357e-01 1.483200e-01 5.432240e-02 -2.008719e-01 5.426291e-02 -2.007893e-01 9.287916e-01 1.489227e-01
6.650000e+09 9.309618e-01 1.431214e-01 5.215598e-02 -1.960375e-01 5.210355e-02 -1.959512e-01 9.309254e-01 1.437315e-01
6.700000e+09 9.330152e-01 1.379244e-01 5.006325e-02 -1.912040e-01 5.001808e-02 -1.911147e-01 9.329867e-01 1.385415e-01
6.750000e+09 9.349967e-01 1.327299e-01 4.804346e-02 -1.863725e-01 4.800571e-02 -1.862807e-01 9.349762e-01 1.333535e-01
6.800000e+09 9.369071e-01 1.275387e-01 4.609586e-02 -1.815438e-01 4.606564e-02 -1.814502e-01 9.368946e-01 1.281685e-01
6.850000e+09 9.387470e-01 1.223516e-01 4.421968e-02 -1.767188e-01 4.419705e-02 -1.766239e-01 9.387428e-01 1.229871e-01
6.900000e+09 9.405174e-01 1.171693e-01 4.241414e-02 -1.718984e-01 4.239912e-02 -1.718029e-01 9.405214e-01 1.178102e-01
6.950000e+09 9.422191e-01 1.119927e-01 4.067845e-02 -1.670835e-01 4.067100e-02 -1.669880e-01 9.422313e-01 1.126385e-01
7.000000e+09 9.438527e-01 1.068224e-01 3.901182e-02 -1.622748e-01 3.901186e-02 -1.621799e-01 9.438732e-01 1.074728e-01
7.050000e+09 9.454192e-01 1.016592e-01 3.741343e-02 -1.574733e-01 3.742085e-02 -1.573794e-01 9.454480e-01 1.023138e-01
7.100000e+09 9.469193e-01 9.650377e-02 3.588246e-02 -1.526796e-01 3.589709e-02 -1.525874e-01 9.469562e-01 9.716217e-02
7.150000e+09 9.483539e-01 9.135677e-02 3.441810e-02 -1.478945e-01 3.443972e-02 -1.478046e-01 9.483989e-01 9.201864e-02
7.200000e+09 9.497237e-01 8.621887e-02 3.301950e-02 -1.431187e-01 3.304787e-02 -1.430316e-01 9.497766e-01 8.688386e-02
7.250000e+09 9.510296e-01 8.109070e-02 3.168583e-02 -1.383530e-01 3.172065e-02 -1.382692e-01 9.510903e-01 8.175847e-02
7.300000e+09 9.522723e-01 7.597285e-02 3.041624e-02 -1.335981e-01 3.045720e-02 -1.335180e-01 9.523407e-01 7.664310e-02
7.350000e+09 9.534528e-01 7.086592e-02 2.920987e-02 -1.288545e-01 2.925661e-02 -1.287786e-01 9.535286e-01 7.153835e-02
7.400000e+09 9.545717e-01 6.577045e-02 2.806588e-02 -1.241230e-01 2.811802e-02 -1.240517e-01 9.546548e-01 6.644479e-02
7.450000e+09 9.556300e-01 6.068699e-02 2.698341e-02 -1.194041e-01 2.704053e-02 -1.193377e-01 9.557200e-01 6.136298e-02
7.500000e+09 9.566284e-01 5.561605e-02 2.596159e-02 -1.146984e-01 2.602325e-02 -1.146373e-01 9.567252e-01 5.629346e-02
7.550000e+09 9.575677e-01 5.055811e-02 2.499957e-02 -1.100064e-01 2.506532e-02 -1.099510e-01 9.576710e-01 5.123674e-02
7.600000e+09 9.584487e-01 4.551365e-02 2.409650e-02 -1.053287e-01 2.416584e-02 -1.052792e-01 9.585582e-01 4.619332e-02
7.650000e+09 9.592722e-01 4.048311e-02 2.325150e-02 -1.006657e-01 2.332396e-02 -1.006223e-01 9.593876e-01 4.116366e-02
7.700000e+09 9.600390e-01 3.546690e-02 2.246374e-02 -9.601793e-02 2.253880e-02 -9.598081e-02 9.601601e-01 3.614820e-02
7.750000e+09 9.607499e-01 3.046543e-02 2.173236e-02 -9.138580e-02 2.180951e-02 -9.135512e-02 9.608764e-01 3.114738e-02
7.800000e+09 9.614057e-01 2.547907e-02 2.105653e-02 -8.676971e-02 2.113523e-02 -8.674558e-02 9.615372e-01 2.616160e-02
7.850000e+09 9.620071e-01 2.050818e-02 2.043540e-02 -8.217006e-02 2.051514e-02 -8.215253e-02 9.621433e-01 2.119124e-02
7.900000e+09 9.625549e-01 1.555309e-02 1.986814e-02 -7.758718e-02 1.994839e-02 -7.757627e-02 9.626955e-01 1.623666e-02
7.950000e+09 9.630498e-01 1.061412e-02 1.935395e-02 -7.302140e-02 1.943419e-02 -7.301711e-02 9.631945e-01 1.129819e-02
8.000000e+09 9.634926e-01 5.691555e-03 1.889200e-02 -6.847304e-02 1.897172e-02 -6.847529e-02 9.636411e-01 6.376170e-03
8.050000e+09 9.638840e-01 7.856705e-04 1.848150e-02 -6.394236e-02 1.856019e-02 -6.395106e-02 9.640360e-01 1.470887e-03
8.100000e+09 9.642246e-01 -4.103277e-03 1.812168e-02 -5.942962e-02 1.819884e-02 -5.944463e-02 9.643799e-01 -3.417378e-03
8.150000e+09 9.645154e-01 -8.975050e-03 1.781174e-02 -5.493505e-02 1.788691e-02 -5.495621e-02 9.646736e-01 -8.288361e-03
8.200000e+09 9.647568e-01 -1.382943e-02 1.755094e-02 -5.045886e-02 1.762365e-02 -5.048595e-02 9.649177e-01 -1.314182e-02
8.250000e+09 9.649496e-01 -1.866621e-02 1.733854e-02 -4.600125e-02 1.740834e-02 -4.603402e-02 9.651129e-01 -1.797753e-02
8.300000e+09 9.650944e-01 -2.348521e-02 1.717379e-02 -4.156236e-02 1.724028e-02 -4.160055e-02 9.652599e-01 -2.279529e-02
8.350000e+09 9.651920e-01 -2.828625e-02 1.705601e-02 -3.714236e-02 1.711879e-02 -3.718567e-02 9.653595e-01 -2.759489e-02
8.400000e+09 9.652429e-01 -3.306918e-02 1.698447e-02 -3.274138e-02 1.704318e-02 -3.278947e-02 9.654121e-01 -3.237617e-02
8.450000e+09 9.652478e-01 -3.783384e-02 1.695852e-02 -2.835952e-02 1.701282e-02 -2.841204e-02 9.654185e-01 -3.713896e-02
8.500000e+09 9.652072e-01 -4.258012e-02 1.697750e-02 -2.399688e-02 1.702708e-02 -2.405346e-02 9.653794e-01 -4.188311e-02
8.550000e+09 9.651218e-01 -4.730788e-02 1.704075e-02 -1.965356e-02 1.708534e-02 -1.971379e-02 9.652952e-01 -4.660849e-02
8.600000e+09 9.649921e-01 -5.201701e-02 1.714766e-02 -1.532961e-02 1.718702e-02 -1.539308e-02 9.651666e-01 -5.131498e-02
8.650000e+09 9.648187e-01 -5.670741e-02 1.729762e-02 -1.102510e-02 1.733155e-02 -1.109138e-02 9.649943e-01 -5.600246e-02
8.700000e+09 9.646022e-01 -6.137900e-02 1.749005e-02 -6.740061e-03 1.751837e-02 -6.808717e-03 9.647787e-01 -6.067083e-02
8.750000e+09 9.643430e-01 -6.603168e-02 1.772439e-02 -2.474543e-03 1.774697e-02 -2.545119e-03 9.645204e-01 -6.532001e-02
8.800000e+09 9.640417e-01 -7.066538e-02 1.800009e-02 1.771434e-03 1.801682e-02 1.699393e-03 9.642199e-01 -6.994991e-02
8.850000e+09 9.636988e-01 -7.528003e-02 1.831662e-02 5.997848e-03 1.832744e-02 5.924803e-03 9.638779e-01 -7.456045e-02
8.900000e+09 9.633148e-01 -7.987556e-02 1.867348e-02 1.020469e-02 1.867835e-02 1.013110e-02 9.634947e-01 -7.915157e-02
8.950000e+09 9.628901e-01 -8.445191e-02 1.907017e-02 1.439194e-02 1.906911e-02 1.431827e-02 9.630709e-01 -8.372321e-02
9.000000e+09 9.624252e-01 -8.900902e-02 1.950623e-02 1.855962e-02 1.949927e-02 1.848631e-02 9.626070e-01 -8.827531e-02
9.050000e+09 9.619206e-01 -9.354684e-02 1.998120e-02 2.270770e-02 1.996843e-02 2.263522e-02 9.621034e-01 -9.280783e-02
9.100000e+09 9.613766e-01 -9.806530e-02 2.049466e-02 2.683621e-02 2.047618e-02 2.676498e-02 9.615605e-01 -9.732070e-02
9.150000e+09 9.607937e-01 -1.025644e-01 2.104617e-02 3.094513e-02 2.102213e-02 3.087558e-02 9.609789e-01 -1.018139e-01
9.200000e+09 9.601722e-01 -1.070440e-01 2.163536e-02 3.503447e-02 2.160592e-02 3.496702e-02 9.603589e-01 -1.062874e-01
9.250000e+09 9.595127e-01 -1.115041e-01 2.226182e-02 3.910425e-02 2.222720e-02 3.903927e-02 9.597009e-01 -1.107411e-01
9.300000e+09 9.588153e-01 -1.159447e-01 2.292520e-02 4.315444e-02 2.288563e-02 4.309233e-02 9.590054e-01 -1.151750e-01
9.350000e+09 9.580806e-01 -1.203656e-01 2.362515e-02 4.718507e-02 2.358087e-02 4.712617e-02 9.582727e-01 -1.195891e-01
9.400000e+09 9.573089e-01 -1.247670e-01 2.436132e-02 5.119611e-02 2.431263e-02 5.114076e-02 9.575031e-01 -1.239833e-01
9.450000e+09 9.565004e-01 -1.291485e-01 2.513339e-02 5.518757e-02 2.508060e-02 5.513606e-02 9.566972e-01 -1.283576e-01
9.500000e+09 9.556556e-01 -1.335104e-01 2.594106e-02 5.915943e-02 2.588448e-02 5.911205e-02 9.558551e-01 -1.327119e-01
9.550000e+09 9.547748e-01 -1.378524e-01 2.678401e-02 6.311166e-02 2.672401e-02 6.306867e-02 9.549772e-01 -1.370462e-01
9.600000e+09 9.538582e-01 -1.421745e-01 2.766198e-02 6.704426e-02 2.759891e-02 6.700587e-02 9.540639e-01 -1.413605e-01
9.650000e+09 9.529062e-01 -1.464766e-01 2.857468e-02 7.095719e-02 2.850891e-02 7.092359e-02 9.531155e-01 -1.456547e-01
9.700000e+09 9.519191e-01 -1.507587e-01 2.952184e-02 7.485040e-02 2.945377e-02 7.482177e-02 9.521322e-01 -1.499287e-01
9.750000e+09 9.508972e-01 -1.550207e-01 3.050321e-02 7.872387e-02 3.043323e-02 7.870033e-02 9.511144e-01 -1.541826e-01
9.800000e+09 9.498407e-01 -1.592624e-01 3.151854e-02 8.257753e-02 3.144705e-02 8.255919e-02 9.500624e-01 -1.584162e-01
9.850000e+09 9.487500e-01 -1.634840e-01 3.256758e-02 8.641133e-02 3.249500e-02 8.639825e-02 9.489765e-01 -1.626294e-01
9.900000e+09 9.476253e-01 -1.676851e-01 3.365010e-02 9.022522e-02 3.357684e-02 9.021743e-02 9.478569e-01 -1.668223e-01
9.950000e+09 9.464669e-01 -1.718658e-01 3.476588e-02 9.401910e-02 3.469233e-02 9.401662e-02 9.467039e-01 -1.709947e-01
1.000000e+10 9.452751e-01 -1.760260e-01 3.591467e-02 9.779291e-02 3.584126e-02 9.779571e-02 9.455178e-01 -1.751465e-01
1.005000e+10 9.440501e-01 -1.801654e-01 3.709627e-02 1.015466e-01 3.702339e-02 1.015546e-01 9.442988e-01 -1.792778e-01
1.010000e+10 9.427921e-01 -1.842842e-01 3.831045e-02 1.052799e-01 3.823850e-02 1.052931e-01 9.430472e-01 -1.833883e-01
1.015000e+10 9.415016e-01 -1.883820e-01 3.955700e-02 1.089930e-01 3.948636e-02 1.090111e-01 9.417633e-01 -1.874781e-01
1.020000e+10 9.401786e-01 -1.924589e-01 4.083570e-02 1.126855e-01 4.076674e-02 1.127085e-01 9.404473e-01 -1.915470e-01
1.025000e+10 9.388235e-01 -1.965147e-01 4.214634e-02 1.163575e-01 4.207942e-02 1.163852e-01 9.390994e-01 -1.955949e-01
1.030000e+10 9.374365e-01 -2.005493e-01 4.348870e-02 1.200087e-01 4.342416e-02 1.200409e-01 9.377199e-01 -1.996217e-01
1.035000e+10 9.360179e-01 -2.045625e-01 4.486257e-02 1.236391e-01 4.480073e-02 1.236756e-01 9.363090e-01 -2.036273e-01
1.040000e+10 9.345679e-01 -2.085543e-01 4.626773e-02 1.272486e-01 4.620890e-02 1.272891e-01 9.348671e-01 -2.076116e-01
1.045000e+10 9.330869e-01 -2.125245e-01 4.770397e-02 1.308369e-01 4.764842e-02 1.308811e-01 9.333943e-01 -2.115745e-01
1.050000e+10 9.315750e-01 -2.164730e-01 4.917106e-02 1.344039e-01 4.911906e-02 1.344516e-01 9.318908e-01 -2.155159e-01
1.055000e+10 9.300324e-01 -2.203996e-01 5.066879e-02 1.379496e-01 5.062057e-02 1.380004e-01 9.303570e-01 -2.194356e-01
1.060000e+10 9.284596e-01 -2.243042e-01 5.219692e-02 1.414736e-01 5.215269e-02 1.415273e-01 9.287930e-01 -2.233336e-01
1.065000e+10 9.268567e-01 -2.281866e-01 5.375523e-02 1.449760e-01 5.371517e-02 1.450322e-01 9.271991e-01 -2.272096e-01
1.070000e+10 9.252240e-01 -2.320469e-01 5.534348e-02 1.484564e-01 5.530776e-02 1.485148e-01 9.255756e-01 -2.310636e-01
1.075000e+10 9.235618e-01 -2.358847e-01 5.696144e-02 1.519148e-01 5.693017e-02 1.519750e-01 9.239228e-01 -2.348955e-01
1.080000e+10 9.218703e-01 -2.397000e-01 5.860887e-02 1.553509e-01 5.858215e-02 1.554126e-01 9.222407e-01 -2.387050e-01
1.085000e+10 9.201498e-01 -2.434926e-01 6.028550e-02 1.587647e-01 6.026341e-02 1.588274e-01 9.205298e-01 -2.424922e-01
1.090000e+10 9.184006e-01 -2.472624e-01 6.199110e-02 1.621559e-01 6.197368e-02 1.622193e-01 9.187902e-01 -2.462567e-01
1.095000e+10 9.166230e-01 -2.510092e-01 6.372541e-02 1.655244e-01 6.371266e-02 1.655881e-01 9.170223e-01 -2.499986e-01
1.100000e+10 9.148172e-01 -2.547330e-01 6.548816e-02 1.688700e-01 6.548007e-02 1.689337e-01 9.152263e-01 -2.537177e-01
1.105000e+10 9.129835e-01 -2.584335e-01 6.727908e-02 1.721925e-01 6.727562e-02 1.722558e-01 9.134024e-01 -2.574138e-01
1.110000e+10 9.111222e-01 -2.621107e-01 6.909791e-02 1.754918e-01 6.909899e-02 1.755543e-01 9.115509e-01 -2.610868e-01
1.115000e+10 9.092336e-01 -2.657645e-01 7.094436e-02 1.787677e-01 7.094989e-02 1.788291e-01 9.096721e-01 -2.647365e-01
1.120000e+10 9.073180e-01 -2.693946e-01 7.281816e-02 1.820201e-01 7.282800e-02 1.820799e-01 9.077662e-01 -2.683629e-01
1.125000e+10 9.053757e-01 -2.730010e-01 7.471900e-02 1.852487e-01 7.473301e-02 1.853068e-01 9.058336e-01 -2.719658e-01
1.130000e+10 9.034069e-01 -2.765836e-01 7.664661e-02 1.884534e-01 7.666461e-02 1.885094e-01 9.038744e-01 -2.755451e-01
1.135000e+10 9.014120e-01 -2.801422e-01 7.860068e-02 1.916341e-01 7.862248e-02 1.916877e-01 9.018891e-01 -2.791007e-01
1.140000e+10 8.993912e-01 -2.836768e-01 8.058092e-02 1.947907e-01 8.060628e-02 1.948415e-01 8.998778e-01 -2.826323e-01
1.145000e+10 8.973449e-01 -2.871872e-01 8.258701e-02 1.979229e-01 8.261570e-02 1.979708e-01 8.978408e-01 -2.861400e-01
1.150000e+10 8.952733e-01 -2.906733e-01 8.461865e-02 2.010306e-01 8.465041e-02 2.010754e-01 8.957785e-01 -2.896237e-01
1.155000e+10 8.931767e-01 -2.941351e-01 8.667553e-02 2.041138e-01 8.671009e-02 2.041551e-01 8.936911e-01 -2.930830e-01
1.160000e+10 8.910555e-01 -2.975723e-01 8.875733e-02 2.071723e-01 8.879439e-02 2.072100e-01 8.915789e-01 -2.965181e-01
1.165000e+10 8.889100e-01 -3.009851e-01 9.086374e-02 2.102059e-01 9.090298e-02 2.102398e-01 8.894422e-01 -2.999288e-01
1.170000e+10 8.867403e-01 -3.043732e-01 9.299443e-02 2.132146e-01 9.303555e-02 2.132446e-01 8.872813e-01 -3.033149e-01
1.175000e+10 8.845469e-01 -3.077365e-01 9.514909e-02 2.161982e-01 9.519176e-02 2.162241e-01 8.850964e-01 -3.066764e-01
1.180000e+10 8.823301e-01 -3.110751e-01 9.732739e-02 2.191567e-01 9.737127e-02 2.191784e-01 8.828880e-01 -3.100132e-01
1.185000e+10 8.800901e-01 -3.143888e-01 9.952901e-02 2.220899e-01 9.957377e-02 2.221074e-01 8.806562e-01 -3.133252e-01
1.190000e+10 8.778272e-01 -3.176776e-01 1.017536e-01 2.249978e-01 1.017989e-01 2.250110e-01 8.784013e-01 -3.166123e-01
1.195000e+10 8.755417e-01 -3.209414e-01 1.040009e-01 2.278803e-01 1.040464e-01 2.278892e-01 8.761237e-01 -3.198745e-01
1.200000e+10 8.732339e-01 -3.241802e-01 1.062706e-01 2.307373e-01 1.063159e-01 2.307419e-01 8.738236e-01 -3.231116e-01
1.205000e+10 8.709041e-01 -3.273939e-01 1.085623e-01 2.335687e-01 1.086071e-01 2.335691e-01 8.715014e-01 -3.263237e-01
1.210000e+10 8.685527e-01 -3.305824e-01 1.108756e-01 2.363746e-01 1.109196e-01 2.363708e-01 8.691573e-01 -3.295106e-01
1.215000e+10 8.661798e-01 -3.337458e-01 1.132104e-01 2.391547e-01 1.132532e-01 2.391469e-01 8.667916e-01 -3.326722e-01
1.220000e+10 8.637857e-01 -3.368840e-01 1.155663e-01 2.419092e-01 1.156076e-01 2.418974e-01 8.644046e-01 -3.358087e-01
1.225000e+10 8.613708e-01 -3.399969e-01 1.179429e-01 2.446380e-01 1.179824e-01 2.446223e-01 8.619966e-01 -3.389198e-01
1.230000e+10 8.589353e-01 -3.430846e-01 1.203400e-01 2.473409e-01 1.203774e-01 2.473216e-01 8.595679e-01 -3.420055e-01
1.235000e+10 8.564795e-01 -3.461469e-01 1.227573e-01 2.500181e-01 1.227923e-01 2.499952e-01 8.571187e-01 -3.450659e-01
1.240000e+10 8.540036e-01 -3.491840e-01 1.251944e-01 2.526695e-01 1.252267e-01 2.526433e-01 8.546493e-01 -3.481008e-01
1.245000e+10 8.515079e-01 -3.521957e-01 1.276510e-01 2.552951e-01 1.276805e-01 2.552658e-01 8.521600e-01 -3.511103e-01
1.250000e+10 8.489927e-01 -3.551821e-01 1.301269e-01 2.578948e-01 1.301533e-01 2.578627e-01 8.496511e-01 -3.540943e-01
1.255000e+10 8.464582e-01 -3.581432e-01 1.326218e-01 2.604687e-01 1.326448e-01 2.604340e-01 8.471228e-01 -3.570529e-01
1.260000e+10 8.439047e-01 -3.610788e-01 1.351354e-01 2.630168e-01 1.351549e-01 2.629798e-01 8.445755e-01 -3.599859e-01
1.265000e+10 8.413324e-01 -3.639892e-01 1.376675e-01 2.655391e-01 1.376832e-01 2.655000e-01 8.420093e-01 -3.628933e-01
1.270000e+10 8.387416e-01 -3.668741e-01 1.402176e-01 2.680356e-01 1.402295e-01 2.679948e-01 8.394245e-01 -3.657753e-01
1.275000e+10 8.361324e-01 -3.697337e-01 1.427857e-01 2.705062e-01 1.427936e-01 2.704641e-01 8.368213e-01 -3.686317e-01
1.280000e+10 8.335052e-01 -3.725680e-01 1.453714e-01 2.729512e-01 1.453752e-01 2.729079e-01 8.342001e-01 -3.714625e-01
1.285000e+10 8.308601e-01 -3.753768e-01 1.479745e-01 2.753703e-01 1.479742e-01 2.753263e-01 8.315611e-01 -3.742678e-01
1.290000e+10 8.281974e-01 -3.781603e-01 1.505947e-01 2.777638e-01 1.505902e-01 2.777193e-01 8.289044e-01 -3.770475e-01
1.295000e+10 8.255173e-01 -3.809185e-01 1.532319e-01 2.801316e-01 1.532231e-01 2.800870e-01 8.262304e-01 -3.798017e-01
1.300000e+10 8.228200e-01 -3.836513e-01 1.558857e-01 2.824737e-01 1.558727e-01 2.824293e-01 8.235392e-01 -3.825303e-01
1.305000e+10 8.201056e-01 -3.863587e-01 1.585559e-01 2.847902e-01 1.585387e-01 2.847463e-01 8.208311e-01 -3.852334e-01
1.310000e+10 8.173745e-01 -3.890408e-01 1.612424e-01 2.870811e-01 1.612211e-01 2.870380e-01 8.181063e-01 -3.879110e-01
1.315000e+10 8.146268e-01 -3.916976e-01 1.639449e-01 2.893464e-01 1.639195e-01 2.893045e-01 8.153650e-01 -3.905630e-01
1.320000e+10 8.118627e-01 -3.943290e-01 1.666633e-01 2.915862e-01 1.666339e-01 2.915458e-01 8.126074e-01 -3.931895e-01
1.325000e+10 8.090824e-01 -3.969351e-01 1.693972e-01 2.938005e-01 1.693640e-01 2.937619e-01 8.098337e-01 -3.957905e-01
1.330000e+10 8.062860e-01 -3.995158e-01 1.721466e-01 2.959893e-01 1.721097e-01 2.959527e-01 8.070442e-01 -3.983659e-01
1.335000e+10 8.034738e-01 -4.020712e-01 1.749112e-01 2.981526e-01 1.748708e-01 2.981185e-01 8.042390e-01 -4.009159e-01
1.340000e+10 8.006460e-01 -4.046012e-01 1.776909e-01 3.002905e-01 1.776471e-01 3.002590e-01 8.014183e-01 -4.034403e-01
1.345000e+10 7.978026e-01 -4.071059e-01 1.804855e-01 3.024030e-01 1.804386e-01 3.023744e-01 7.985823e-01 -4.059393e-01
1.350000e+10 7.949439e-01 -4.095852e-01 1.832948e-01 3.044902e-01 1.832450e-01 3.044646e-01 7.957312e-01 -4.084128e-01
1.355000e+10 7.920701e-01 -4.120391e-01 1.861187e-01 3.065520e-01 1.860662e-01 3.065297e-01 7.928652e-01 -4.108607e-01
1.360000e+10 7.891813e-01 -4.144676e-01 1.889570e-01 3.085884e-01 1.889021e-01 3.085697e-01 7.899844e-01 -4.132832e-01
1.365000e+10 7.862776e-01 -4.168708e-01 1.918095e-01 3.105995e-01 1.917525e-01 3.105845e-01 7.870890e-01 -4.156802e-01
1.370000e+10 7.833593e-01 -4.192485e-01 1.946761e-01 3.125853e-01 1.946172e-01 3.125741e-01 7.841792e-01 -4.180517e-01
1.375000e+10 7.804264e-01 -4.216007e-01 1.975567e-01 3.145458e-01 1.974963e-01 3.145385e-01 7.812551e-01 -4.203977e-01
1.380000e+10 7.774792e-01 -4.239275e-01 2.004510e-01 3.164810e-01 2.003894e-01 3.164777e-01 7.783170e-01 -4.227182e-01
1.385000e+10 7.745179e-01 -4.262288e-01 2.033591e-01 3.183908e-01 2.032965e-01 3.183917e-01 7.753649e-01 -4.250131e-01
1.390000e+10 7.715424e-01 -4.285045e-01 2.062807e-01 3.202753e-01 2.062175e-01 3.202804e-01 7.723991e-01 -4.272825e-01
1.395000e+10 7.685531e-01 -4.307547e-01 2.092156e-01 3.221345e-01 2.091522e-01 3.221438e-01 7.694196e-01 -4.295264e-01
1.400000e+10 7.655501e-01 -4.329793e-01 2.121639e-01 3.239683e-01 2.121004e-01 3.239818e-01 7.664267e-01 -4.317446e-01
1.405000e+10 7.625335e-01 -4.351783e-01 2.151253e-01 3.257767e-01 2.150622e-01 3.257945e-01 7.634205e-01 -4.339373e-01
1.410000e+10 7.595035e-01 -4.373515e-01 2.180997e-01 3.275597e-01 2.180372e-01 3.275816e-01 7.604011e-01 -4.361043e-01
1.415000e+10 7.564602e-01 -4.394991e-01 2.210869e-01 3.293173e-01 2.210255e-01 3.293433e-01 7.573688e-01 -4.382457e-01
1.420000e+10 7.534038e-01 -4.416209e-01 2.240869e-01 3.310493e-01 2.240267e-01 3.310794e-01 7.543236e-01 -4.403614e-01
1.425000e+10 7.503344e-01 -4.437168e-01 2.270995e-01 3.327559e-01 2.270409e-01 3.327899e-01 7.512657e-01 -4.424514e-01
1.430000e+10 7.472523e-01 -4.457868e-01 2.301246e-01 3.344369e-01 2.300679e-01 3.344747e-01 7.481952e-01 -4.445156e-01
1.435000e+10 7.441575e-01 -4.478310e-01 2.331621e-01 3.360923e-01 2.331075e-01 3.361337e-01 7.451124e-01 -4.465540e-01
1.440000e+10 7.410502e-01 -4.498491e-01 2.362118e-01 3.377221e-01 2.361596e-01 3.377669e-01 7.420173e-01 -4.485666e-01
1.445000e+10 7.379306e-01 -4.518411e-01 2.392735e-01 3.393261e-01 2.392240e-01 3.393741e-01 7.389102e-01 -4.505532e-01
1.450000e+10 7.347989e-01 -4.538071e-01 2.423472e-01 3.409043e-01 2.423006e-01 3.409553e-01 7.357911e-01 -4.525140e-01
1.455000e+10 7.316551e-01 -4.557469e-01 2.454328e-01 3.424566e-01 2.453892e-01 3.425105e-01 7.326602e-01 -4.544487e-01
1.460000e+10 7.284996e-01 -4.576604e-01 2.485300e-01 3.439830e-01 2.484897e-01 3.440394e-01 7.295177e-01 -4.563574e-01
1.465000e+10 7.253324e-01 -4.595476e-01 2.516387e-01 3.454835e-01 2.516019e-01 3.455421e-01 7.263638e-01 -4.582400e-01
1.470000e+10 7.221537e-01 -4.614084e-01 2.547588e-01 3.469578e-01 2.547256e-01 3.470185e-01 7.231985e-01 -4.600964e-01
1.475000e+10 7.189638e-01 -4.632428e-01 2.578901e-01 3.484060e-01 2.578607e-01 3.484684e-01 7.200222e-01 -4.619266e-01
1.480000e+10 7.157627e-01 -4.650507e-01 2.610325e-01 3.498280e-01 2.610070e-01 3.498918e-01 7.168348e-01 -4.637305e-01
1.485000e+10 7.125507e-01 -4.668319e-01 2.641858e-01 3.512237e-01 2.641643e-01 3.512886e-01 7.136366e-01 -4.655081e-01
1.490000e+10 7.093280e-01 -4.685866e-01 2.673498e-01 3.525929e-01 2.673323e-01 3.526586e-01 7.104278e-01 -4.672592e-01
1.495000e+10 7.060947e-01 -4.703145e-01 2.705244e-01 3.539357e-01 2.705110e-01 3.540019e-01 7.072086e-01 -4.689839e-01
1.500000e+10 7.028510e-01 -4.720156e-01 2.737094e-01 3.552518e-01 2.737001e-01 3.553182e-01 7.039790e-01 -4.706820e-01
1.505000e+10 6.995972e-01 -4.736898e-01 2.769047e-01 3.565414e-01 2.768995e-01 3.566076e-01 7.007394e-01 -4.723535e-01
1.510000e+10 6.963334e-01 -4.753371e-01 2.801100e-01 3.578041e-01 2.801088e-01 3.578699e-01 6.974898e-01 -4.739984e-01
1.515000e+10 6.930598e-01 -4.769575e-01 2.833251e-01 3.590401e-01 2.833280e-01 3.591051e-01 6.942305e-01 -4.756165e-01
1.520000e+10 6.897766e-01 -4.785507e-01 2.865499e-01 3.602491e-01 2.865567e-01 3.603130e-01 6.909616e-01 -4.772078e-01
1.525000e+10 6.864841e-01 -4.801169e-01 2.897842e-01 3.614310e-01 2.897948e-01 3.614936e-01 6.876834e-01 -4.787722e-01
1.530000e+10 6.831825e-01 -4.816559e-01 2.930278e-01 3.625859e-01 2.930420e-01 3.626469e-01 6.843960e-01 -4.803096e-01
1.535000e+10 6.798719e-01 -4.831676e-01 2.962804e-01 3.637136e-01 2.962982e-01 3.637726e-01 6.810996e-01 -4.818201e-01
1.540000e+10 6.765525e-01 -4.846521e-01 2.995419e-01 3.648140e-01 2.995631e-01 3.648709e-01 6.777945e-01 -4.833035e-01
1.545000e+10 6.732247e-01 -4.861092e-01 3.028121e-01 3.658871e-01 3.028364e-01 3.659415e-01 6.744808e-01 -4.847597e-01
1.550000e+10 6.698886e-01 -4.875389e-01 3.060906e-01 3.669328e-01 3.061179e-01 3.669845e-01 6.711587e-01 -4.861888e-01
1.555000e+10 6.665444e-01 -4.889412e-01 3.093774e-01 3.679509e-01 3.094074e-01 3.679997e-01 6.678285e-01 -4.875906e-01
1.560000e+10 6.631923e-01 -4.903159e-01 3.126721e-01 3.689415e-01 3.127047e-01 3.689872e-01 6.644904e-01 -4.889651e-01
1.565000e+10 6.598327e-01 -4.916632e-01 3.159746e-01 3.699044e-01 3.160094e-01 3.699468e-01 6.611445e-01 -4.903123e-01
1.570000e+10 6.564656e-01 -4.929829e-01 3.192846e-01 3.708397e-01 3.193214e-01 3.708786e-01 6.577911e-01 -4.916320e-01
1.575000e+10 6.530914e-01 -4.942750e-01 3.226019e-01 3.717472e-01 3.226404e-01 3.717825e-01 6.544305e-01 -4.929243e-01
1.580000e+10 6.497102e-01 -4.955394e-01 3.259262e-01 3.726268e-01 3.259661e-01 3.726584e-01 6.510628e-01 -4.941891e-01
1.585000e+10 6.463223e-01 -4.967762e-01 3.292573e-01 3.734786e-01 3.292983e-01 3.735064e-01 6.476882e-01 -4.954264e-01
1.590000e+10 6.429280e-01 -4.979853e-01 3.325950e-01 3.743025e-01 3.326368e-01 3.743264e-01 6.443070e-01 -4.966360e-01
1.595000e+10 6.395274e-01 -4.991667e-01 3.359390e-01 3.750984e-01 3.359813e-01 3.751184e-01 6.409195e-01 -4.978180e-01
1.600000e+10 6.361208e-01 -5.003203e-01 3.392890e-01 3.758663e-01 3.393314e-01 3.758824e-01 6.375258e-01 -4.989724e-01
1.605000e+10 6.327084e-01 -5.014463e-01 3.426448e-01 3.766062e-01 3.426871e-01 3.766183e-01 6.341261e-01 -5.000991e-01
1.610000e+10 6.292904e-01 -5.025445e-01 3.460062e-01 3.773180e-01 3.460481e-01 3.773262e-01 6.307208e-01 -5.011981e-01
1.615000e+10 6.258672e-01 -5.036149e-01 3.493729e-01 3.780018e-01 3.494140e-01 3.780061e-01 6.273100e-01 -5.022694e-01
1.620000e+10 6.224388e-01 -5.046576e-01 3.527447e-01 3.786574e-01 3.527846e-01 3.786580e-01 6.238939e-01 -5.033129e-01
1.625000e+10 6.190055e-01 -5.056725e-01 3.561212e-01 3.792850e-01 3.561598e-01 3.792818e-01 6.204729e-01 -5.043287e-01
1.630000e+10 6.155677e-01 -5.066597e-01 3.595023e-01 3.798845e-01 3.595392e-01 3.798777e-01 6.170471e-01 -5.053167e-01
1.635000e+10 6.121254e-01 -5.076192e-01 3.628877e-01 3.804558e-01 3.629226e-01 3.804456e-01 6.136167e-01 -5.062769e-01
1.640000e+10 6.086789e-01 -5.085509e-01 3.662771e-01 3.809990e-01 3.663098e-01 3.809856e-01 6.101821e-01 -5.072094e-01
1.645000e+10 6.052284e-01 -5.094549e-01 3.696703e-01 3.815142e-01 3.697005e-01 3.814976e-01 6.067434e-01 -5.081140e-01
1.650000e+10 6.017742e-01 -5.103312e-01 3.730670e-01 3.820013e-01 3.730945e-01 3.819818e-01 6.033008e-01 -5.089910e-01
1.655000e+10 5.983165e-01 -5.111799e-01 3.764671e-01 3.824603e-01 3.764916e-01 3.824382e-01 5.998547e-01 -5.098401e-01
1.660000e+10 5.948555e-01 -5.120009e-01 3.798702e-01 3.828913e-01 3.798915e-01 3.828667e-01 5.964051e-01 -5.106615e-01
1.665000e+10 5.913914e-01 -5.127943e-01 3.832761e-01 3.832942e-01 3.832941e-01 3.832676e-01 5.929524e-01 -5.114552e-01
1.670000e+10 5.879244e-01 -5.135601e-01 3.866846e-01 3.836692e-01 3.866990e-01 3.836407e-01 5.894968e-01 -5.122212e-01
1.675000e+10 5.844547e-01 -5.142983e-01 3.900954e-01 3.840163e-01 3.901062e-01 3.839862e-01 5.860385e-01 -5.129595e-01
1.680000e+10 5.809826e-01 -5.150090e-01 3.935084e-01 3.843355e-01 3.935153e-01 3.843040e-01 5.825777e-01 -5.136701e-01
1.685000e+10 5.775082e-01 -5.156922e-01 3.969232e-01 3.846268e-01 3.969262e-01 3.845944e-01 5.791146e-01 -5.143531e-01
1.690000e+10 5.740318e-01 -5.163480e-01 4.003396e-01 3.848904e-01 4.003386e-01 3.848573e-01 5.756495e-01 -5.150085e-01
1.695000e+10 5.705535e-01 -5.169763e-01 4.037575e-01 3.851262e-01 4.037524e-01 3.850927e-01 5.721825e-01 -5.156363e-01
1.700000e+10 5.670735e-01 -5.175773e-01 4.071765e-01 3.853343e-01 4.071674e-01 3.853008e-01 5.687140e-01 -5.162366e-01
1.705000e+10 5.635921e-01 -5.181509e-01 4.105966e-01 3.855147e-01 4.105834e-01 3.854815e-01 5.652440e-01 -5.168094e-01
1.710000e+10 5.601094e-01 -5.186972e-01 4.140174e-01 3.856676e-01 4.140002e-01 3.856351e-01 5.617729e-01 -5.173548e-01
1.715000e+10 5.566257e-01 -5.192162e-01 4.174389e-01 3.857930e-01 4.174176e-01 3.857614e-01 5.583007e-01 -5.178727e-01
1.720000e+10 5.531410e-01 -5.197081e-01 4.208606e-01 3.858910e-01 4.208354e-01 3.858606e-01 5.548278e-01 -5.183633e-01
1.725000e+10 5.496556e-01 -5.201727e-01 4.242826e-01 3.859616e-01 4.242535e-01 3.859328e-01 5.513542e-01 -5.188266e-01
1.730000e+10 5.461697e-01 -5.206102e-01 4.277045e-01 3.860048e-01 4.276718e-01 3.859779e-01 5.478803e-01 -5.192626e-01
1.735000e+10 5.426834e-01 -5.210206e-01 4.311263e-01 3.860208e-01 4.310899e-01 3.859961e-01 5.444062e-01 -5.196714e-01
1.740000e+10 5.391969e-01 -5.214040e-01 4.345476e-01 3.860097e-01 4.345078e-01 3.859874e-01 5.409321e-01 -5.200530e-01
1.745000e+10 5.357105e-01 -5.217604e-01 4.379683e-01 3.859714e-01 4.379254e-01 3.859518e-01 5.374581e-01 -5.204075e-01
1.750000e+10 5.322242e-01 -5.220898e-01 4.413883e-01 3.859060e-01 4.413424e-01 3.858895e-01 5.339845e-01 -5.207349e-01
1.755000e+10 5.287382e-01 -5.223922e-01 4.448074e-01 3.858137e-01 4.447587e-01 3.858004e-01 5.305115e-01 -5.210353e-01
1.760000e+10 5.252527e-01 -5.226677e-01 4.482254e-01 3.856945e-01 4.481741e-01 3.856846e-01 5.270391e-01 -5.213087e-01
1.765000e+10 5.217679e-01 -5.229164e-01 4.516421e-01 3.855484e-01 4.515886e-01 3.855422e-01 5.235677e-01 -5.215552e-01
1.770000e+10 5.182839e-01 -5.231383e-01 4.550574e-01 3.853756e-01 4.550019e-01 3.853732e-01 5.200974e-01 -5.217748e-01
1.775000e+10 5.148009e-01 -5.233334e-01 4.584712e-01 3.851760e-01 4.584140e-01 3.851776e-01 5.166283e-01 -5.219676e-01
1.780000e+10 5.113191e-01 -5.235017e-01 4.618832e-01 3.849497e-01 4.618246e-01 3.849555e-01 5.131606e-01 -5.221336e-01
1.785000e+10 5.078386e-01 -5.236433e-01 4.652933e-01 3.846968e-01 4.652337e-01 3.847069e-01 5.096946e-01 -5.222729e-01
1.790000e+10 5.043596e-01 -5.237582e-01 4.687014e-01 3.844174e-01 4.686410e-01 3.844318e-01 5.062302e-01 -5.223855e-01
1.795000e+10 5.008822e-01 -5.238464e-01 4.721073e-01 3.841115e-01 4.720465e-01 3.841303e-01 5.027678e-01 -5.224715e-01
1.800000e+10 4.974065e-01 -5.239079e-01 4.755109e-01 3.837791e-01 4.754501e-01 3.838024e-01 4.993075e-01 -5.225309e-01
1.805000e+10 4.939329e-01 -5.239429e-01 4.789120e-01 3.834203e-01 4.788515e-01 3.834480e-01 4.958494e-01 -5.225637e-01
1.810000e+10 4.904613e-01 -5.239512e-01 4.823105e-01 3.830351e-01 4.822507e-01 3.830673e-01 4.923938e-01 -5.225700e-01
1.815000e+10 4.869921e-01 -5.239330e-01 4.857062e-01 3.826237e-01 4.856474e-01 3.826602e-01 4.889407e-01 -5.225498e-01
1.820000e+10 4.835252e-01 -5.238882e-01 4.890991e-01 3.821859e-01 4.890416e-01 3.822268e-01 4.854903e-01 -5.225032e-01
1.825000e+10 4.800610e-01 -5.238168e-01 4.924889e-01 3.817219e-01 4.924331e-01 3.817670e-01 4.820427e-01 -5.224302e-01
1.830000e+10 4.765995e-01 -5.237189e-01 4.958756e-01 3.812316e-01 4.958218e-01 3.812809e-01 4.785983e-01 -5.223308e-01
1.835000e+10 4.731410e-01 -5.235945e-01 4.992590e-01 3.807152e-01 4.992075e-01 3.807685e-01 4.751570e-01 -5.222051e-01
1.840000e+10 4.696855e-01 -5.234437e-01 5.026389e-01 3.801726e-01 5.025901e-01 3.802297e-01 4.717190e-01 -5.220531e-01
1.845000e+10 4.662333e-01 -5.232663e-01 5.060153e-01 3.796039e-01 5.059693e-01 3.796645e-01 4.682846e-01 -5.218748e-01
1.850000e+10 4.627844e-01 -5.230624e-01 5.093879e-01 3.790090e-01 5.093452e-01 3.790730e-01 4.648539e-01 -5.216703e-01
1.855000e+10 4.593392e-01 -5.228321e-01 5.127567e-01 3.783880e-01 5.127174e-01 3.784552e-01 4.614269e-01 -5.214395e-01
1.860000e+10 4.558978e-01 -5.225753e-01 5.161214e-01 3.777410e-01 5.160859e-01 3.778110e-01 4.580040e-01 -5.211825e-01
1.865000e+10 4.524602e-01 -5.222920e-01 5.194820e-01 3.770678e-01 5.194505e-01 3.771404e-01 4.545851e-01 -5.208993e-01
1.870000e+10 4.490268e-01 -5.219823e-01 5.228384e-01 3.763685e-01 5.228110e-01 3.764435e-01 4.511706e-01 -5.205900e-01
1.875000e+10 4.455977e-01 -5.216462e-01 5.261902e-01 3.756432e-01 5.261672e-01 3.757201e-01 4.477606e-01 -5.202546e-01
1.880000e+10 4.421730e-01 -5.212837e-01 5.295375e-01 3.748918e-01 5.295189e-01 3.749704e-01 4.443552e-01 -5.198930e-01
1.885000e+10 4.387530e-01 -5.208947e-01 5.328800e-01 3.741144e-01 5.328661e-01 3.741942e-01 4.409546e-01 -5.195053e-01
1.890000e+10 4.353379e-01 -5.204793e-01 5.362176e-01 3.733108e-01 5.362084e-01 3.733916e-01 4.375590e-01 -5.190915e-01
1.895000e+10 4.319278e-01 -5.200375e-01 5.395501e-01 3.724812e-01 5.395457e-01 3.725626e-01 4.341685e-01 -5.186517e-01
1.900000e+10 4.285228e-01 -5.195694e-01 5.428774e-01 3.716255e-01 5.428779e-01 3.717072e-01 4.307833e-01 -5.181858e-01
1.905000e+10 4.251233e-01 -5.190748e-01 5.461993e-01 3.707437e-01 5.462046e-01 3.708252e-01 4.274036e-01 -5.176938e-01
1.910000e+10 4.217295e-01 -5.185539e-01 5.495156e-01 3.698359e-01 5.495258e-01 3.699169e-01 4.240296e-01 -5.171759e-01
1.915000e+10 4.183414e-01 -5.180066e-01 5.528261e-01 3.689019e-01 5.528412e-01 3.689820e-01 4.206614e-01 -5.166319e-01
1.920000e+10 4.149593e-01 -5.174330e-01 5.561307e-01 3.679418e-01 5.561505e-01 3.680207e-01 4.172992e-01 -5.160619e-01
1.925000e+10 4.115835e-01 -5.168330e-01 5.594292e-01 3.669557e-01 5.594537e-01 3.670329e-01 4.139433e-01 -5.154659e-01
1.930000e+10 4.082141e-01 -5.162068e-01 5.627213e-01 3.659434e-01 5.627504e-01 3.660186e-01 4.105938e-01 -5.148440e-01
1.935000e+10 4.048514e-01 -5.155543e-01 5.660069e-01 3.649050e-01 5.660404e-01 3.649779e-01 4.072509e-01 -5.141961e-01
1.940000e+10 4.014955e-01 -5.148755e-01 5.692858e-01 3.638406e-01 5.693235e-01 3.639107e-01 4.039147e-01 -5.135223e-01
1.945000e+10 3.981466e-01 -5.141705e-01 5.725578e-01 3.627500e-01 5.725996e-01 3.628171e-01 4.005856e-01 -5.128226e-01
1.950000e+10 3.948051e-01 -5.134393e-01 5.758227e-01 3.616333e-01 5.758682e-01 3.616971e-01 3.972636e-01 -5.120970e-01
1.955000e+10 3.914710e-01 -5.126819e-01 5.790802e-01 3.604905e-01 5.791293e-01 3.605507e-01 3.939491e-01 -5.113455e-01
1.960000e+10 3.881447e-01 -5.118984e-01 5.823302e-01 3.593216e-01 5.823826e-01 3.593779e-01 3.906421e-01 -5.105682e-01
1.965000e+10 3.848263e-01 -5.110889e-01 5.855724e-01 3.581266e-01 5.856277e-01 3.581787e-01 3.873429e-01 -5.097651e-01
1.970000e+10 3.815161e-01 -5.102533e-01 5.888066e-01 3.569055e-01 5.888646e-01 3.569533e-01 3.840518e-01 -5.089362e-01
1.975000e+10 3.782144e-01 -5.093917e-01 5.920326e-01 3.556584e-01 5.920929e-01 3.557016e-01 3.807689e-01 -5.080816e-01
1.980000e+10 3.749212e-01 -5.085041e-01 5.952502e-01 3.543853e-01 5.953124e-01 3.544237e-01 3.774944e-01 -5.072012e-01
1.985000e+10 3.716369e-01 -5.075907e-01 5.984590e-01 3.530861e-01 5.985229e-01 3.531196e-01 3.742286e-01 -5.062952e-01
1.990000e+10 3.683617e-01 -5.066515e-01 6.016589e-01 3.517610e-01 6.017240e-01 3.517894e-01 3.709717e-01 -5.053636e-01
1.995000e+10 3.650958e-01 -5.056865e-01 6.048497e-01 3.504100e-01 6.049156e-01 3.504332e-01 3.677239e-01 -5.044063e-01
2.000000e+10 3.618394e-01 -5.046958e-01 6.080311e-01 3.490330e-01 6.080974e-01 3.490511e-01 3.644854e-01 -5.034236e-01
2.005000e+10 3.585929e-01 -5.036796e-01 6.112028e-01 3.476302e-01 6.112691e-01 3.476430e-01 3.612565e-01 -5.024153e-01
2.010000e+10 3.553563e-01 -5.026377e-01 6.143646e-01 3.462017e-01 6.144306e-01 3.462091e-01 3.580374e-01 -5.013817e-01
2.015000e+10 3.521300e-01 -5.015705e-01 6.175163e-01 3.447473e-01 6.175815e-01 3.447496e-01 3.548282e-01 -5.003227e-01
2.020000e+10 3.489141e-01 -5.004779e-01 6.206576e-01 3.432673e-01 6.207215e-01 3.432644e-01 3.516293e-01 -4.992384e-01
2.025000e+10 3.457089e-01 -4.993600e-01 6.237882e-01 3.417617e-01 6.238506e-01 3.417537e-01 3.484409e-01 -4.981289e-01
2.030000e+10 3.425146e-01 -4.982169e-01 6.269080e-01 3.402306e-01 6.269683e-01 3.402176e-01 3.452631e-01 -4.969942e-01
2.035000e+10 3.393315e-01 -4.970488e-01 6.300166e-01 3.386740e-01 6.300745e-01 3.386562e-01 3.420963e-01 -4.958345e-01
2.040000e+10 3.361597e-01 -4.958556e-01 6.331138e-01 3.370921e-01 6.331689e-01 3.370696e-01 3.389406e-01 -4.946498e-01
2.045000e+10 3.329995e-01 -4.946377e-01 6.361994e-01 3.354848e-01 6.362514e-01 3.354580e-01 3.357963e-01 -4.934403e-01
2.050000e+10 3.298511e-01 -4.933949e-01 6.392731e-01 3.338525e-01 6.393215e-01 3.338214e-01 3.326637e-01 -4.922059e-01
2.055000e+10 3.267147e-01 -4.921276e-01 6.423346e-01 3.321950e-01 6.423793e-01 3.321600e-01 3.295428e-01 -4.909469e-01
2.060000e+10 3.235906e-01 -4.908357e-01 6.453838e-01 3.305126e-01 6.454243e-01 3.304740e-01 3.264340e-01 -4.896632e-01
2.065000e+10 3.204789e-01 -4.895195e-01 6.484203e-01 3.288054e-01 6.484564e-01 3.287635e-01 3.233375e-01 -4.883551e-01
2.070000e+10 3.173798e-01 -4.881789e-01 6.514440e-01 3.270735e-01 6.514753e-01 3.270286e-01 3.202535e-01 -4.870226e-01
2.075000e+10 3.142937e-01 -4.868143e-01 6.544546e-01 3.253170e-01 6.544810e-01 3.252696e-01 3.171823e-01 -4.856658e-01
2.080000e+10 3.112205e-01 -4.854256e-01 6.574518e-01 3.235360e-01 6.574730e-01 3.234864e-01 3.141240e-01 -4.842850e-01
2.085000e+10 3.081606e-01 -4.840131e-01 6.604354e-01 3.217308e-01 6.604513e-01 3.216794e-01 3.110788e-01 -4.828801e-01
2.090000e+10 3.051142e-01 -4.825769e-01 6.634053e-01 3.199014e-01 6.634157e-01 3.198486e-01 3.080471e-01 -4.814513e-01
2.095000e+10 3.020814e-01 -4.811171e-01 6.663611e-01 3.180480e-01 6.663659e-01 3.179942e-01 3.050289e-01 -4.799988e-01
2.100000e+10 2.990625e-01 -4.796338e-01 6.693027e-01 3.161707e-01 6.693018e-01 3.161165e-01 3.020246e-01 -4.785227e-01
2.105000e+10 2.960575e-01 -4.781273e-01 6.722298e-01 3.142698e-01 6.722231e-01 3.142155e-01 2.990342e-01 -4.770231e-01
2.110000e+10 2.930668e-01 -4.765976e-01 6.751422e-01 3.123453e-01 6.751298e-01 3.122914e-01 2.960581e-01 -4.755002e-01
2.115000e+10 2.900904e-01 -4.750449e-01 6.780398e-01 3.103975e-01 6.780216e-01 3.103444e-01 2.930964e-01 -4.739541e-01
2.120000e+10 2.871285e-01 -4.734694e-01 6.809223e-01 3.084264e-01 6.808984e-01 3.083747e-01 2.901493e-01 -4.723849e-01
2.125000e+10 2.841814e-01 -4.718711e-01 6.837895e-01 3.064324e-01 6.837600e-01 3.063824e-01 2.872169e-01 -4.707929e-01
2.130000e+10 2.812492e-01 -4.702504e-01 6.866412e-01 3.044155e-01 6.866063e-01 3.043678e-01 2.842996e-01 -4.691782e-01
2.135000e+10 2.783319e-01 -4.686072e-01 6.894773e-01 3.023760e-01 6.894371e-01 3.023309e-01 2.813974e-01 -4.675409e-01
2.140000e+10 2.754299e-01 -4.669417e-01 6.922976e-01 3.003140e-01 6.922523e-01 3.002720e-01 2.785106e-01 -4.658812e-01
2.145000e+10 2.725433e-01 -4.652542e-01 6.951019e-01 2.982297e-01 6.950517e-01 2.981912e-01 2.756393e-01 -4.641993e-01
2.150000e+10 2.696721e-01 -4.635447e-01 6.978900e-01 2.961233e-01 6.978352e-01 2.960887e-01 2.727837e-01 -4.624953e-01
2.155000e+10 2.668166e-01 -4.618135e-01 7.006618e-01 2.939950e-01 7.006027e-01 2.939647e-01 2.699440e-01 -4.607693e-01
2.160000e+10 2.639768e-01 -4.600606e-01 7.034172e-01 2.918449e-01 7.033540e-01 2.918193e-01 2.671203e-01 -4.590216e-01
2.165000e+10 2.611530e-01 -4.582862e-01 7.061559e-01 2.896733e-01 7.060890e-01 2.896526e-01 2.643128e-01 -4.572523e-01
2.170000e+10 2.583453e-01 -4.564904e-01 7.088778e-01 2.874803e-01 7.088077e-01 2.874649e-01 2.615216e-01 -4.554616e-01
2.175000e+10 2.555537e-01 -4.546735e-01 7.115828e-01 2.852661e-01 7.115099e-01 2.852563e-01 2.587469e-01 -4.536497e-01
2.180000e+10 2.527785e-01 -4.528355e-01 7.142708e-01 2.830310e-01 7.141954e-01 2.830269e-01 2.559889e-01 -4.518166e-01
2.185000e+10 2.500198e-01 -4.509766e-01 7.169416e-01 2.807750e-01 7.168643e-01 2.807769e-01 2.532476e-01 -4.499626e-01
2.190000e+10 2.472776e-01 -4.490969e-01 7.195951e-01 2.784983e-01 7.195163e-01 2.785065e-01 2.505233e-01 -4.480879e-01
2.195000e+10 2.445522e-01 -4.471966e-01 7.222313e-01 2.762012e-01 7.221514e-01 2.762157e-01 2.478160e-01 -4.461925e-01
2.200000e+10 2.418436e-01 -4.452758e-01 7.248499e-01 2.738838e-01 7.247695e-01 2.739048e-01 2.451259e-01 -4.442768e-01
2.205000e+10 2.391520e-01 -4.433346e-01 7.274508e-01 2.715463e-01 7.273705e-01 2.715738e-01 2.424531e-01 -4.423407e-01
2.210000e+10 2.364774e-01 -4.413732e-01 7.300341e-01 2.691889e-01 7.299543e-01 2.692229e-01 2.397977e-01 -4.403845e-01
2.215000e+10 2.338201e-01 -4.393918e-01 7.325995e-01 2.668117e-01 7.325208e-01 2.668522e-01 2.371600e-01 -4.384084e-01
2.220000e+10 2.311801e-01 -4.373903e-01 7.351470e-01 2.644149e-01 7.350698e-01 2.644619e-01 2.345399e-01 -4.364125e-01
2.225000e+10 2.285575e-01 -4.353691e-01 7.376765e-01 2.619986e-01 7.376014e-01 2.620520e-01 2.319376e-01 -4.343969e-01
2.230000e+10 2.259525e-01 -4.333281e-01 7.401878e-01 2.595630e-01 7.401154e-01 2.596226e-01 2.293532e-01 -4.323619e-01
2.235000e+10 2.233652e-01 -4.312676e-01 7.426810e-01 2.571082e-01 7.426116e-01 2.571739e-01 2.267869e-01 -4.303075e-01
2.240000e+10 2.207957e-01 -4.291876e-01 7.451558e-01 2.546345e-01 7.450901e-01 2.547061e-01 2.242387e-01 -4.282340e-01
2.245000e+10 2.182440e-01 -4.270882e-01 7.476123e-01 2.521419e-01 7.475507e-01 2.522191e-01 2.217087e-01 -4.261413e-01
2.250000e+10 2.157105e-01 -4.249696e-01 7.500504e-01 2.496306e-01 7.499933e-01 2.497130e-01 2.191972e-01 -4.240298e-01
2.255000e+10 2.131951e-01 -4.228319e-01 7.524699e-01 2.471007e-01 7.524178e-01 2.471881e-01 2.167040e-01 -4.218996e-01
2.260000e+10 2.106980e-01 -4.206752e-01 7.548707e-01 2.445524e-01 7.548241e-01 2.446443e-01 2.142295e-01 -4.197507e-01
2.265000e+10 2.082192e-01 -4.184997e-01 7.572529e-01 2.419857e-01 7.572120e-01 2.420819e-01 2.117736e-01 -4.175833e-01
2.270000e+10 2.057591e-01 -4.163054e-01 7.596162e-01 2.394008e-01 7.595816e-01 2.395007e-01 2.093366e-01 -4.153976e-01
2.275000e+10 2.033176e-01 -4.140924e-01 7.619607e-01 2.367978e-01 7.619326e-01 2.369010e-01 2.069184e-01 -4.131937e-01
2.280000e+10 2.008949e-01 -4.118609e-01 7.642862e-01 2.341769e-01 7.642649e-01 2.342829e-01 2.045192e-01 -4.109717e-01
2.285000e+10 1.984911e-01 -4.096109e-01 7.665926e-01 2.315381e-01 7.665784e-01 2.316463e-01 2.021391e-01 -4.087318e-01
2.290000e+10 1.961063e-01 -4.073426e-01 7.688799e-01 2.288815e-01 7.688730e-01 2.289915e-01 1.997783e-01 -4.064740e-01
2.295000e+10 1.937408e-01 -4.050561e-01 7.711480e-01 2.262073e-01 7.711485e-01 2.263184e-01 1.974367e-01 -4.041985e-01
2.300000e+10 1.913946e-01 -4.027515e-01 7.733967e-01 2.235156e-01 7.734049e-01 2.236272e-01 1.951146e-01 -4.019055e-01
2.305000e+10 1.890679e-01 -4.004289e-01 7.756260e-01 2.208064e-01 7.756418e-01 2.209180e-01 1.928121e-01 -3.995950e-01
2.310000e+10 1.867608e-01 -3.980884e-01 7.778357e-01 2.180798e-01 7.778593e-01 2.181908e-01 1.905292e-01 -3.972671e-01
2.315000e+10 1.844735e-01 -3.957302e-01 7.800258e-01 2.153360e-01 7.800572e-01 2.154457e-01 1.882661e-01 -3.949220e-01
2.320000e+10 1.822062e-01 -3.933543e-01 7.821962e-01 2.125750e-01 7.822352e-01 2.126828e-01 1.860228e-01 -3.925598e-01
2.325000e+10 1.799588e-01 -3.909609e-01 7.843467e-01 2.097969e-01 7.843933e-01 2.099022e-01 1.837996e-01 -3.901806e-01
2.330000e+10 1.777318e-01 -3.885500e-01 7.864772e-01 2.070018e-01 7.865312e-01 2.071040e-01 1.815965e-01 -3.877846e-01
2.335000e+10 1.755251e-01 -3.861219e-01 7.885875e-01 2.041898e-01 7.886488e-01 2.042883e-01 1.794137e-01 -3.853718e-01
2.340000e+10 1.733389e-01 -3.836765e-01 7.906777e-01 2.013610e-01 7.907460e-01 2.014552e-01 1.772513e-01 -3.829423e-01
2.345000e+10 1.711735e-01 -3.812141e-01 7.927474e-01 1.985154e-01 7.928224e-01 1.986048e-01 1.751094e-01 -3.804964e-01
2.350000e+10 1.690290e-01 -3.787348e-01 7.947967e-01 1.956532e-01 7.948781e-01 1.957371e-01 1.729882e-01 -3.780340e-01
2.355000e+10 1.669055e-01 -3.762388e-01 7.968253e-01 1.927745e-01 7.969126e-01 1.928524e-01 1.708877e-01 -3.755553e-01
2.360000e+10 1.648032e-01 -3.737260e-01 7.988330e-01 1.898793e-01 7.989260e-01 1.899507e-01 1.688082e-01 -3.730605e-01
2.365000e+10 1.627223e-01 -3.711968e-01 8.008198e-01 1.869677e-01 8.009179e-01 1.870322e-01 1.667497e-01 -3.705496e-01
2.370000e+10 1.606630e-01 -3.686511e-01 8.027855e-01 1.840399e-01 8.028881e-01 1.840970e-01 1.647125e-01 -3.680228e-01
2.375000e+10 1.586254e-01 -3.660893e-01 8.047299e-01 1.810959e-01 8.048366e-01 1.811452e-01 1.626966e-01 -3.654802e-01
2.380000e+10 1.566097e-01 -3.635114e-01 8.066529e-01 1.781358e-01 8.067630e-01 1.781769e-01 1.607023e-01 -3.629219e-01
2.385000e+10 1.546161e-01 -3.609176e-01 8.085542e-01 1.751598e-01 8.086671e-01 1.751924e-01 1.587296e-01 -3.603481e-01
2.390000e+10 1.526448e-01 -3.583081e-01 8.104337e-01 1.721679e-01 8.105488e-01 1.721918e-01 1.567788e-01 -3.577588e-01
2.395000e+10 1.506959e-01 -3.556829e-01 8.122912e-01 1.691604e-01 8.124079e-01 1.691752e-01 1.548499e-01 -3.551543e-01
2.400000e+10 1.487696e-01 -3.530424e-01 8.141266e-01 1.661372e-01 8.142441e-01 1.661428e-01 1.529432e-01 -3.525347e-01
2.405000e+10 1.468662e-01 -3.503867e-01 8.159396e-01 1.630985e-01 8.160572e-01 1.630948e-01 1.510588e-01 -3.499001e-01
2.410000e+10 1.449856e-01 -3.477159e-01 8.177300e-01 1.600445e-01 8.178470e-01 1.600314e-01 1.491969e-01 -3.472507e-01
2.415000e+10 1.431283e-01 -3.450303e-01 8.194977e-01 1.569753e-01 8.196134e-01 1.569528e-01 1.473577e-01 -3.445866e-01
2.420000e+10 1.412942e-01 -3.423301e-01 8.212424e-01 1.538911e-01 8.213560e-01 1.538592e-01 1.455412e-01 -3.419079e-01
2.425000e+10 1.394837e-01 -3.396154e-01 8.229640e-01 1.507919e-01 8.230748e-01 1.507508e-01 1.437477e-01 -3.392149e-01
2.430000e+10 1.376968e-01 -3.368864e-01 8.246622e-01 1.476781e-01 8.247695e-01 1.476278e-01 1.419774e-01 -3.365078e-01
2.435000e+10 1.359337e-01 -3.341435e-01 8.263369e-01 1.445496e-01 8.264399e-01 1.444905e-01 1.402303e-01 -3.337866e-01
2.440000e+10 1.341946e-01 -3.313867e-01 8.279879e-01 1.414068e-01 8.280858e-01 1.413391e-01 1.385068e-01 -3.310516e-01
2.445000e+10 1.324796e-01 -3.286164e-01 8.296148e-01 1.382499e-01 8.297071e-01 1.381738e-01 1.368069e-01 -3.283030e-01
2.450000e+10 1.307890e-01 -3.258327e-01 8.312176e-01 1.350789e-01 8.313035e-01 1.349949e-01 1.351309e-01 -3.255409e-01
2.455000e+10 1.291228e-01 -3.230359e-01 8.327961e-01 1.318941e-01 8.328749e-01 1.318026e-01 1.334788e-01 -3.227656e-01
2.460000e+10 1.274812e-01 -3.202263e-01 8.343500e-01 1.286957e-01 8.344212e-01 1.285973e-01 1.318509e-01 -3.199772e-01
2.465000e+10 1.258643e-01 -3.174040e-01 8.358791e-01 1.254840e-01 8.359420e-01 1.253792e-01 1.302473e-01 -3.171760e-01
2.470000e+10 1.242724e-01 -3.145693e-01 8.373833e-01 1.222592e-01 8.374374e-01 1.221485e-01 1.286682e-01 -3.143622e-01
2.475000e+10 1.227054e-01 -3.117225e-01 8.388624e-01 1.190214e-01 8.389071e-01 1.189056e-01 1.271137e-01 -3.115360e-01
2.480000e+10 1.211636e-01 -3.088638e-01 8.403161e-01 1.157711e-01 8.403511e-01 1.156508e-01 1.255840e-01 -3.086976e-01
2.485000e+10 1.196470e-01 -3.059936e-01 8.417443e-01 1.125083e-01 8.417691e-01 1.123842e-01 1.240793e-01 -3.058473e-01
2.490000e+10 1.181558e-01 -3.031119e-01 8.431469e-01 1.092334e-01 8.431611e-01 1.091064e-01 1.225997e-01 -3.029853e-01
2.495000e+10 1.166901e-01 -3.002192e-01 8.445236e-01 1.059467e-01 8.445269e-01 1.058174e-01 1.211453e-01 -3.001118e-01
2.500000e+10 1.152500e-01 -2.973157e-01 8.458742e-01 1.026483e-01 8.458665e-01 1.025177e-01 1.197163e-01 -2.972272e-01
2.505000e+10 1.138356e-01 -2.944017e-01 8.471987e-01 9.933873e-02 8.471797e-01 9.920762e-02 1.183128e-01 -2.943316e-01
2.510000e+10 1.124469e-01 -2.914774e-01 8.484969e-01 9.601810e-02 8.484665e-01 9.588737e-02 1.169350e-01 -2.914253e-01
2.515000e+10 1.110841e-01 -2.885431e-01 8.497686e-01 9.268677e-02 8.497267e-01 9.255730e-02 1.155829e-01 -2.885086e-01
2.520000e+10 1.097472e-01 -2.855992e-01 8.510137e-01 8.934503e-02 8.509604e-01 8.921772e-02 1.142567e-01 -2.855818e-01
2.525000e+10 1.084362e-01 -2.826457e-01 8.522320e-01 8.599320e-02 8.521675e-01 8.586896e-02 1.129566e-01 -2.826451e-01
2.530000e+10 1.071514e-01 -2.796832e-01 8.534236e-01 8.263159e-02 8.533478e-01 8.251131e-02 1.116825e-01 -2.796988e-01
2.535000e+10 1.058926e-01 -2.767117e-01 8.545881e-01 7.926051e-02 8.545015e-01 7.914510e-02 1.104346e-01 -2.767432e-01
2.540000e+10 1.046600e-01 -2.737317e-01 8.557257e-01 7.588028e-02 8.556284e-01 7.577062e-02 1.092131e-01 -2.737786e-01
2.545000e+10 1.034535e-01 -2.707433e-01 8.568361e-01 7.249124e-02 8.567286e-01 7.238820e-02 1.080179e-01 -2.708052e-01
2.550000e+10 1.022733e-01 -2.677469e-01 8.579193e-01 6.909371e-02 8.578020e-01 6.899813e-02 1.068491e-01 -2.678233e-01
2.555000e+10 1.011193e-01 -2.647426e-01 8.589752e-01 6.568801e-02 8.588487e-01 6.560070e-02 1.057069e-01 -2.648333e-01
2.560000e+10 9.999159e-02 -2.617309e-01 8.600038e-01 6.227448e-02 8.598686e-01 6.219623e-02 1.045913e-01 -2.618355e-01
2.565000e+10 9.889012e-02 -2.587119e-01 8.610050e-01 5.885344e-02 8.608618e-01 5.878499e-02 1.035023e-01 -2.588300e-01
2.570000e+10 9.781493e-02 -2.556860e-01 8.619788e-01 5.542523e-02 8.618283e-01 5.536727e-02 1.024400e-01 -2.558173e-01
2.575000e+10 9.676601e-02 -2.526533e-01 8.629252e-01 5.199017e-02 8.627682e-01 5.194335e-02 1.014044e-01 -2.527975e-01
2.580000e+10 9.574336e-02 -2.496142e-01 8.638441e-01 4.854860e-02 8.636814e-01 4.851349e-02 1.003956e-01 -2.497710e-01
2.585000e+10 9.474696e-02 -2.465688e-01 8.647356e-01 4.510083e-02 8.645681e-01 4.507798e-02 9.941357e-02 -2.467382e-01
2.590000e+10 9.377680e-02 -2.435174e-01 8.655997e-01 4.164718e-02 8.654283e-01 4.163705e-02 9.845830e-02 -2.436992e-01
2.595000e+10 9.283285e-02 -2.404604e-01 8.664363e-01 3.818799e-02 8.662621e-01 3.819096e-02 9.752983e-02 -2.406543e-01
2.600000e+10 9.191509e-02 -2.373978e-01 8.672456e-01 3.472355e-02 8.670695e-01 3.473995e-02 9.662815e-02 -2.376039e-01
2.605000e+10 9.102349e-02 -2.343300e-01 8.680275e-01 3.125417e-02 8.678506e-01 3.128425e-02 9.575326e-02 -2.345483e-01
2.610000e+10 9.015802e-02 -2.312571e-01 8.687822e-01 2.778017e-02 8.686055e-01 2.782408e-02 9.490513e-02 -2.314876e-01
2.615000e+10 8.931864e-02 -2.281794e-01 8.695096e-01 2.430183e-02 8.693342e-01 2.435966e-02 9.408376e-02 -2.284222e-01
2.620000e+10 8.850532e-02 -2.250971e-01 8.702098e-01 2.081944e-02 8.700369e-01 2.089118e-02 9.328910e-02 -2.253523e-01
2.625000e+10 8.771801e-02 -2.220104e-01 8.708830e-01 1.733329e-02 8.707136e-01 1.741885e-02 9.252113e-02 -2.222783e-01
2.630000e+10 8.695667e-02 -2.189196e-01 8.715291e-01 1.384365e-02 8.713645e-01 1.394284e-02 9.177980e-02 -2.192003e-01
2.635000e+10 8.622126e-02 -2.158247e-01 8.721483e-01 1.035078e-02 8.719895e-01 1.046334e-02 9.106506e-02 -2.161187e-01
2.640000e+10 8.551175e-02 -2.127260e-01 8.727407e-01 6.854932e-03 8.725888e-01 6.980499e-03 9.037688e-02 -2.130336e-01
2.645000e+10 8.482807e-02 -2.096236e-01 8.733063e-01 3.356362e-03 8.731625e-01 3.494485e-03 8.971518e-02 -2.099453e-01
2.650000e+10 8.417020e-02 -2.065179e-01 8.738453e-01 -1.446982e-04 8.737106e-01 5.441850e-06 8.907992e-02 -2.068541e-01
2.655000e+10 8.353810e-02 -2.034088e-01 8.743579e-01 -3.648023e-03 8.742332e-01 -3.486493e-03 8.847103e-02 -2.037602e-01
2.660000e+10 8.293171e-02 -2.002966e-01 8.748439e-01 -7.153395e-03 8.747304e-01 -6.981190e-03 8.788843e-02 -2.006638e-01
2.665000e+10 8.235101e-02 -1.971815e-01 8.753037e-01 -1.066061e-02 8.752022e-01 -1.047853e-02 8.733207e-02 -1.975651e-01
2.670000e+10 8.179596e-02 -1.940636e-01 8.757374e-01 -1.416948e-02 8.756488e-01 -1.397839e-02 8.680187e-02 -1.944643e-01
2.675000e+10 8.126653e-02 -1.909430e-01 8.761449e-01 -1.767980e-02 8.760701e-01 -1.748067e-02 8.629775e-02 -1.913616e-01
2.680000e+10 8.076270e-02 -1.878200e-01 8.765266e-01 -2.119143e-02 8.764663e-01 -2.098528e-02 8.581966e-02 -1.882573e-01
2.685000e+10 8.028442e-02 -1.846945e-01 8.768824e-01 -2.470418e-02 8.768373e-01 -2.449211e-02 8.536750e-02 -1.851515e-01
2.690000e+10 7.983170e-02 -1.815669e-01 8.772125e-01 -2.821790e-02 8.771832e-01 -2.800108e-02 8.494121e-02 -1.820444e-01
2.695000e+10 7.940450e-02 -1.784372e-01 8.775169e-01 -3.173247e-02 8.775040e-01 -3.151211e-02 8.454071e-02 -1.789361e-01
2.700000e+10 7.900282e-02 -1.753055e-01 8.777959e-01 -3.524774e-02 8.777997e-01 -3.502512e-02 8.416594e-02 -1.758269e-01
2.705000e+10 7.862665e-02 -1.721720e-01 8.780495e-01 -3.876359e-02 8.780704e-01 -3.854002e-02 8.381682e-02 -1.727168e-01
2.710000e+10 7.827599e-02 -1.690368e-01 8.782778e-01 -4.227991e-02 8.783160e-01 -4.205675e-02 8.349328e-02 -1.696062e-01
2.715000e+10 7.795085e-02 -1.659001e-01 8.784809e-01 -4.579661e-02 8.785366e-01 -4.557524e-02 8.319526e-02 -1.664950e-01
2.720000e+10 7.765123e-02 -1.627619e-01 8.786589e-01 -4.931357e-02 8.787321e-01 -4.909541e-02 8.292270e-02 -1.633834e-01
2.725000e+10 7.737715e-02 -1.596224e-01 8.788118e-01 -5.283073e-02 8.789024e-01 -5.261719e-02 8.267555e-02 -1.602716e-01
2.730000e+10 7.712864e-02 -1.564817e-01 8.789398e-01 -5.634799e-02 8.790476e-01 -5.614051e-02 8.245374e-02 -1.571598e-01
2.735000e+10 7.690573e-02 -1.533400e-01 8.790429e-01 -5.986528e-02 8.791675e-01 -5.966529e-02 8.225723e-02 -1.540479e-01
2.740000e+10 7.670843e-02 -1.501973e-01 8.791211e-01 -6.338255e-02 8.792622e-01 -6.319147e-02 8.208598e-02 -1.509362e-01
2.745000e+10 7.653681e-02 -1.470538e-01 8.791745e-01 -6.689972e-02 8.793315e-01 -6.671894e-02 8.193995e-02 -1.478248e-01
2.750000e+10 7.639090e-02 -1.439097e-01 8.792032e-01 -7.041673e-02 8.793754e-01 -7.024763e-02 8.181910e-02 -1.447137e-01
2.755000e+10 7.627075e-02 -1.407650e-01 8.792071e-01 -7.393354e-02 8.793937e-01 -7.377745e-02 8.172343e-02 -1.416032e-01
2.760000e+10 7.617642e-02 -1.376200e-01 8.791862e-01 -7.745010e-02 8.793864e-01 -7.730829e-02 8.165289e-02 -1.384933e-01
2.765000e+10 7.610797e-02 -1.344747e-01 8.791406e-01 -8.096634e-02 8.793534e-01 -8.084005e-02 8.160749e-02 -1.353840e-01
2.770000e+10 7.606546e-02 -1.313293e-01 8.790702e-01 -8.448222e-02 8.792945e-01 -8.437261e-02 8.158722e-02 -1.322757e-01
2.775000e+10 7.604898e-02 -1.281840e-01 8.789751e-01 -8.799770e-02 8.792096e-01 -8.790585e-02 8.159208e-02 -1.291682e-01
2.780000e+10 7.605859e-02 -1.250389e-01 8.788551e-01 -9.151271e-02 8.790987e-01 -9.143963e-02 8.162208e-02 -1.260618e-01
2.785000e+10 7.609437e-02 -1.218942e-01 8.787103e-01 -9.502721e-02 8.789614e-01 -9.497380e-02 8.167724e-02 -1.229565e-01
2.790000e+10 7.615640e-02 -1.187501e-01 8.785406e-01 -9.854113e-02 8.787978e-01 -9.850821e-02 8.175758e-02 -1.198525e-01
2.795000e+10 7.624477e-02 -1.156068e-01 8.783459e-01 -1.020544e-01 8.786076e-01 -1.020427e-01 8.186312e-02 -1.167499e-01
2.800000e+10 7.635956e-02 -1.124644e-01 8.781261e-01 -1.055670e-01 8.783908e-01 -1.055770e-01 8.199392e-02 -1.136488e-01
2.805000e+10 7.650086e-02 -1.093232e-01 8.778811e-01 -1.090788e-01 8.781470e-01 -1.091111e-01 8.215001e-02 -1.105493e-01
2.810000e+10 7.666875e-02 -1.061834e-01 8.776109e-01 -1.125897e-01 8.778763e-01 -1.126446e-01 8.233143e-02 -1.074516e-01
2.815000e+10 7.686334e-02 -1.030452e-01 8.773153e-01 -1.160997e-01 8.775784e-01 -1.161774e-01 8.253826e-02 -1.043557e-01
2.820000e+10 7.708469e-02 -9.990879e-02 8.769943e-01 -1.196086e-01 8.772532e-01 -1.197091e-01 8.277055e-02 -1.012619e-01
2.825000e+10 7.733290e-02 -9.677445e-02 8.766476e-01 -1.231163e-01 8.769005e-01 -1.232397e-01 8.302836e-02 -9.817024e-02
2.830000e+10 7.760805e-02 -9.364242e-02 8.762751e-01 -1.266228e-01 8.765202e-01 -1.267687e-01 8.331177e-02 -9.508088e-02
2.835000e+10 7.791022e-02 -9.051296e-02 8.758767e-01 -1.301278e-01 8.761121e-01 -1.302959e-01 8.362087e-02 -9.199401e-02
2.840000e+10 7.823949e-02 -8.738634e-02 8.754523e-01 -1.336312e-01 8.756761e-01 -1.338210e-01 8.395571e-02 -8.890977e-02
2.845000e+10 7.859592e-02 -8.426283e-02 8.750017e-01 -1.371329e-01 8.752121e-01 -1.373437e-01 8.431640e-02 -8.582836e-02
2.850000e+10 7.897960e-02 -8.114272e-02 8.745247e-01 -1.406326e-01 8.747199e-01 -1.408636e-01 8.470302e-02 -8.274996e-02
2.855000e+10 7.939056e-02 -7.802631e-02 8.740211e-01 -1.441303e-01 8.741993e-01 -1.443805e-01 8.511565e-02 -7.967476e-02
2.860000e+10 7.982888e-02 -7.491390e-02 8.734909e-01 -1.476256e-01 8.736504e-01 -1.478939e-01 8.555438e-02 -7.660297e-02
2.865000e+10 8.029459e-02 -7.180581e-02 8.729338e-01 -1.511183e-01 8.730730e-01 -1.514035e-01 8.601930e-02 -7.353481e-02
2.870000e+10 8.078773e-02 -6.870236e-02 8.723496e-01 -1.546083e-01 8.724670e-01 -1.549089e-01 8.651051e-02 -7.047051e-02
2.875000e+10 8.130833e-02 -6.560387e-02 8.717383e-01 -1.580952e-01 8.718324e-01 -1.584096e-01 8.702808e-02 -6.741030e-02
2.880000e+10 8.185641e-02 -6.251069e-02 8.710996e-01 -1.615787e-01 8.711690e-01 -1.619054e-01 8.757210e-02 -6.435444e-02
2.885000e+10 8.243197e-02 -5.942315e-02 8.704334e-01 -1.650587e-01 8.704769e-01 -1.653958e-01 8.814265e-02 -6.130318e-02
2.890000e+10 8.303501e-02 -5.634161e-02 8.697396e-01 -1.685347e-01 8.697561e-01 -1.688803e-01 8.873982e-02 -5.825679e-02
2.895000e+10 8.366551e-02 -5.326643e-02 8.690180e-01 -1.720064e-01 8.690064e-01 -1.723585e-01 8.936367e-02 -5.521557e-02
2.900000e+10 8.432344e-02 -5.019796e-02 8.682684e-01 -1.754736e-01 8.682280e-01 -1.758300e-01 9.001427e-02 -5.217979e-02
2.905000e+10 8.500876e-02 -4.713656e-02 8.674908e-01 -1.789358e-01 8.674209e-01 -1.792943e-01 9.069168e-02 -4.914977e-02
2.910000e+10 8.572143e-02 -4.408261e-02 8.666850e-01 -1.823926e-01 8.665851e-01 -1.827510e-01 9.139595e-02 -4.612582e-02
2.915000e+10 8.646135e-02 -4.103647e-02 8.658509e-01 -1.858437e-01 8.657208e-01 -1.861996e-01 9.212712e-02 -4.310827e-02
2.920000e+10 8.722846e-02 -3.799852e-02 8.649885e-01 -1.892887e-01 8.648279e-01 -1.896397e-01 9.288523e-02 -4.009744e-02
2.925000e+10 8.802266e-02 -3.496912e-02 8.640977e-01 -1.927272e-01 8.639066e-01 -1.930708e-01 9.367031e-02 -3.709368e-02
2.930000e+10 8.884382e-02 -3.194864e-02 8.631784e-01 -1.961586e-01 8.629571e-01 -1.964924e-01 9.448235e-02 -3.409735e-02
2.935000e+10 8.969183e-02 -2.893746e-02 8.622306e-01 -1.995827e-01 8.619795e-01 -1.999041e-01 9.532137e-02 -3.110879e-02
2.940000e+10 9.056654e-02 -2.593593e-02 8.612543e-01 -2.029989e-01 8.609741e-01 -2.033055e-01 9.618736e-02 -2.812839e-02
2.945000e+10 9.146779e-02 -2.294442e-02 8.602495e-01 -2.064067e-01 8.599409e-01 -2.066960e-01 9.708027e-02 -2.515651e-02
2.950000e+10 9.239541e-02 -1.996329e-02 8.592161e-01 -2.098057e-01 8.588803e-01 -2.100754e-01 9.800009e-02 -2.219352e-02
2.955000e+10 9.334921e-02 -1.699289e-02 8.581543e-01 -2.131954e-01 8.577924e-01 -2.134430e-01 9.894674e-02 -1.923982e-02
2.960000e+10 9.432900e-02 -1.403355e-02 8.570642e-01 -2.165754e-01 8.566776e-01 -2.167987e-01 9.992016e-02 -1.629579e-02
2.965000e+10 9.533455e-02 -1.108562e-02 8.559457e-01 -2.199451e-01 8.555362e-01 -2.201418e-01 1.009203e-01 -1.336182e-02
2.970000e+10 9.636564e-02 -8.149425e-03 8.547991e-01 -2.233041e-01 8.543684e-01 -2.234721e-01 1.019469e-01 -1.043829e-02
2.975000e+10 9.742202e-02 -5.225277e-03 8.536244e-01 -2.266518e-01 8.531745e-01 -2.267891e-01 1.030001e-01 -7.525615e-03
2.980000e+10 9.850344e-02 -2.313484e-03 8.524219e-01 -2.299878e-01 8.519551e-01 -2.300926e-01 1.040796e-01 -4.624168e-03
2.985000e+10 9.960963e-02 5.856630e-04 8.511917e-01 -2.333116e-01 8.507102e-01 -2.333821e-01 1.051852e-01 -1.734344e-03
2.990000e+10 1.007403e-01 3.471882e-03 8.499341e-01 -2.366227e-01 8.494405e-01 -2.366574e-01 1.063168e-01 1.143472e-03
2.995000e+10 1.018952e-01 6.344908e-03 8.486492e-01 -2.399207e-01 8.481462e-01 -2.399182e-01 1.074743e-01 4.008896e-03
3.000000e+10 1.030740e-01 9.204489e-03 8.473373e-01 -2.432050e-01 8.468278e-01 -2.431641e-01 1.086573e-01 6.861553e-03
