#   Hz   S  RI   R   50
!
0.000000e+00 3.792246e-02 0.000000e+00 9.539373e-01 0.000000e+00 9.539365e-01 0.000000e+00 3.793597e-02 0.000000e+00
5.000000e+07 3.808044e-02 1.184503e-02 9.537717e-01 -1.257514e-02 9.537709e-01 -1.257510e-02 3.809382e-02 1.184229e-02
1.000000e+08 3.855413e-02 2.367935e-02 9.532751e-01 -2.513865e-02 9.532743e-01 -2.513858e-02 3.856713e-02 2.367387e-02
1.500000e+08 3.934282e-02 3.549227e-02 9.524484e-01 -3.767893e-02 9.524476e-01 -3.767883e-02 3.935519e-02 3.548408e-02
2.000000e+08 4.044536e-02 4.727313e-02 9.512928e-01 -5.018445e-02 9.512921e-01 -5.018432e-02 4.045685e-02 4.726228e-02
2.500000e+08 4.186010e-02 5.901139e-02 9.498103e-01 -6.264376e-02 9.498095e-01 -6.264360e-02 4.187046e-02 5.899793e-02
3.000000e+08 4.358495e-02 7.069657e-02 9.480031e-01 -7.504553e-02 9.480023e-01 -7.504534e-02 4.359394e-02 7.068057e-02
3.500000e+08 4.561737e-02 8.231833e-02 9.458742e-01 -8.737856e-02 9.458734e-01 -8.737834e-02 4.562475e-02 8.229989e-02
4.000000e+08 4.795437e-02 9.386649e-02 9.434268e-01 -9.963186e-02 9.434261e-01 -9.963162e-02 4.795991e-02 9.384569e-02
4.500000e+08 5.059254e-02 1.053310e-01 9.406650e-01 -1.117946e-01 9.406643e-01 -1.117943e-01 5.059602e-02 1.053080e-01
5.000000e+08 5.352804e-02 1.167021e-01 9.375929e-01 -1.238562e-01 9.375922e-01 -1.238559e-01 5.352924e-02 1.166769e-01
5.500000e+08 5.675664e-02 1.279701e-01 9.342154e-01 -1.358064e-01 9.342147e-01 -1.358061e-01 5.675534e-02 1.279430e-01
6.000000e+08 6.027368e-02 1.391257e-01 9.305376e-01 -1.476350e-01 9.305370e-01 -1.476347e-01 6.026969e-02 1.390967e-01
6.500000e+08 6.407415e-02 1.501597e-01 9.265653e-01 -1.593324e-01 9.265647e-01 -1.593320e-01 6.406727e-02 1.501290e-01
7.000000e+08 6.815268e-02 1.610632e-01 9.223045e-01 -1.708890e-01 9.223039e-01 -1.708886e-01 6.814274e-02 1.610310e-01
7.500000e+08 7.250355e-02 1.718278e-01 9.177615e-01 -1.822958e-01 9.177609e-01 -1.822954e-01 7.249036e-02 1.717943e-01
8.000000e+08 7.712069e-02 1.824452e-01 9.129432e-01 -1.935441e-01 9.129426e-01 -1.935437e-01 7.710410e-02 1.824105e-01
8.500000e+08 8.199776e-02 1.929073e-01 9.078566e-01 -2.046254e-01 9.078561e-01 -2.046250e-01 8.197761e-02 1.928717e-01
9.000000e+08 8.712810e-02 2.032067e-01 9.025092e-01 -2.155318e-01 9.025087e-01 -2.155313e-01 8.710426e-02 2.031703e-01
9.500000e+08 9.250481e-02 2.133361e-01 8.969087e-01 -2.262556e-01 8.969083e-01 -2.262552e-01 9.247715e-02 2.132991e-01
1.000000e+09 9.812071e-02 2.232885e-01 8.910630e-01 -2.367898e-01 8.910626e-01 -2.367894e-01 9.808912e-02 2.232511e-01
1.050000e+09 1.039684e-01 2.330574e-01 8.849804e-01 -2.471276e-01 8.849801e-01 -2.471271e-01 1.039328e-01 2.330199e-01
1.100000e+09 1.100404e-01 2.426367e-01 8.786693e-01 -2.572625e-01 8.786690e-01 -2.572621e-01 1.100006e-01 2.425993e-01
1.150000e+09 1.163287e-01 2.520206e-01 8.721383e-01 -2.671889e-01 8.721380e-01 -2.671884e-01 1.162848e-01 2.519835e-01
1.200000e+09 1.228256e-01 2.612037e-01 8.653961e-01 -2.769011e-01 8.653958e-01 -2.769006e-01 1.227774e-01 2.611670e-01
1.250000e+09 1.295229e-01 2.701809e-01 8.584516e-01 -2.863942e-01 8.584514e-01 -2.863938e-01 1.294704e-01 2.701450e-01
1.300000e+09 1.364125e-01 2.789476e-01 8.513139e-01 -2.956637e-01 8.513137e-01 -2.956632e-01 1.363556e-01 2.789127e-01
1.350000e+09 1.434860e-01 2.874997e-01 8.439920e-01 -3.047053e-01 8.439918e-01 -3.047049e-01 1.434247e-01 2.874659e-01
1.400000e+09 1.507350e-01 2.958332e-01 8.364951e-01 -3.135155e-01 8.364949e-01 -3.135151e-01 1.506694e-01 2.958009e-01
1.450000e+09 1.581513e-01 3.039447e-01 8.288323e-01 -3.220910e-01 8.288321e-01 -3.220906e-01 1.580812e-01 3.039140e-01
1.500000e+09 1.657262e-01 3.118311e-01 8.210128e-01 -3.304290e-01 8.210127e-01 -3.304286e-01 1.656518e-01 3.118023e-01
1.550000e+09 1.734513e-01 3.194898e-01 8.130458e-01 -3.385271e-01 8.130457e-01 -3.385267e-01 1.733726e-01 3.194631e-01
1.600000e+09 1.813183e-01 3.269184e-01 8.049405e-01 -3.463834e-01 8.049404e-01 -3.463830e-01 1.812352e-01 3.268939e-01
1.650000e+09 1.893186e-01 3.341150e-01 7.967059e-01 -3.539962e-01 7.967058e-01 -3.539959e-01 1.892312e-01 3.340930e-01
1.700000e+09 1.974438e-01 3.410779e-01 7.883510e-01 -3.613645e-01 7.883510e-01 -3.613642e-01 1.973522e-01 3.410587e-01
1.750000e+09 2.056856e-01 3.478061e-01 7.798847e-01 -3.684875e-01 7.798848e-01 -3.684871e-01 2.055898e-01 3.477897e-01
1.800000e+09 2.140357e-01 3.542985e-01 7.713159e-01 -3.753647e-01 7.713159e-01 -3.753644e-01 2.139359e-01 3.542853e-01
1.850000e+09 2.224860e-01 3.605546e-01 7.626532e-01 -3.819962e-01 7.626532e-01 -3.819959e-01 2.223822e-01 3.605447e-01
1.900000e+09 2.310285e-01 3.665743e-01 7.539051e-01 -3.883823e-01 7.539051e-01 -3.883820e-01 2.309208e-01 3.665679e-01
1.950000e+09 2.396550e-01 3.723576e-01 7.450799e-01 -3.945236e-01 7.450800e-01 -3.945233e-01 2.395435e-01 3.723548e-01
2.000000e+09 2.483579e-01 3.779049e-01 7.361859e-01 -4.004211e-01 7.361860e-01 -4.004209e-01 2.482428e-01 3.779058e-01
2.050000e+09 2.571295e-01 3.832168e-01 7.272310e-01 -4.060761e-01 7.272311e-01 -4.060759e-01 2.570108e-01 3.832218e-01
2.100000e+09 2.659623e-01 3.882944e-01 7.182230e-01 -4.114902e-01 7.182231e-01 -4.114900e-01 2.658401e-01 3.883035e-01
2.150000e+09 2.748488e-01 3.931389e-01 7.091695e-01 -4.166652e-01 7.091697e-01 -4.166650e-01 2.747233e-01 3.931521e-01
2.200000e+09 2.837820e-01 3.977517e-01 7.000779e-01 -4.216032e-01 7.000781e-01 -4.216030e-01 2.836533e-01 3.977693e-01
2.250000e+09 2.927549e-01 4.021345e-01 6.909553e-01 -4.263065e-01 6.909555e-01 -4.263064e-01 2.926231e-01 4.021566e-01
2.300000e+09 3.017605e-01 4.062893e-01 6.818086e-01 -4.307778e-01 6.818088e-01 -4.307776e-01 3.016258e-01 4.063161e-01
2.350000e+09 3.107924e-01 4.102183e-01 6.726444e-01 -4.350197e-01 6.726446e-01 -4.350196e-01 3.106549e-01 4.102497e-01
2.400000e+09 3.198441e-01 4.139237e-01 6.634692e-01 -4.390352e-01 6.634694e-01 -4.390351e-01 3.197040e-01 4.139600e-01
2.450000e+09 3.289095e-01 4.174081e-01 6.542892e-01 -4.428275e-01 6.542894e-01 -4.428274e-01 3.287669e-01 4.174493e-01
2.500000e+09 3.379825e-01 4.206742e-01 6.451102e-01 -4.463998e-01 6.451104e-01 -4.463997e-01 3.378375e-01 4.207204e-01
2.550000e+09 3.470573e-01 4.237249e-01 6.359381e-01 -4.497556e-01 6.359382e-01 -4.497555e-01 3.469102e-01 4.237761e-01
2.600000e+09 3.561284e-01 4.265631e-01 6.267780e-01 -4.528983e-01 6.267782e-01 -4.528983e-01 3.559793e-01 4.266195e-01
2.650000e+09 3.651905e-01 4.291920e-01 6.176354e-01 -4.558318e-01 6.176356e-01 -4.558318e-01 3.650395e-01 4.292535e-01
2.700000e+09 3.742384e-01 4.316149e-01 6.085150e-01 -4.585597e-01 6.085152e-01 -4.585597e-01 3.740856e-01 4.316815e-01
2.750000e+09 3.832671e-01 4.338349e-01 5.994217e-01 -4.610858e-01 5.994219e-01 -4.610858e-01 3.831128e-01 4.339068e-01
2.800000e+09 3.922721e-01 4.358557e-01 5.903597e-01 -4.634141e-01 5.903599e-01 -4.634141e-01 3.921163e-01 4.359329e-01
2.850000e+09 4.012488e-01 4.376807e-01 5.813334e-01 -4.655486e-01 5.813336e-01 -4.655486e-01 4.010917e-01 4.377632e-01
2.900000e+09 4.101928e-01 4.393135e-01 5.723467e-01 -4.674931e-01 5.723469e-01 -4.674932e-01 4.100346e-01 4.394013e-01
2.950000e+09 4.191003e-01 4.407578e-01 5.634033e-01 -4.692519e-01 5.634035e-01 -4.692520e-01 4.189410e-01 4.408509e-01
3.000000e+09 4.279672e-01 4.420173e-01 5.545068e-01 -4.708289e-01 5.545070e-01 -4.708290e-01 4.278070e-01 4.421157e-01
3.050000e+09 4.367899e-01 4.430957e-01 5.456605e-01 -4.722281e-01 5.456607e-01 -4.722282e-01 4.366290e-01 4.431994e-01
3.100000e+09 4.455650e-01 4.439968e-01 5.368674e-01 -4.734537e-01 5.368676e-01 -4.734539e-01 4.454035e-01 4.441058e-01
3.150000e+09 4.542892e-01 4.447243e-01 5.281305e-01 -4.745098e-01 5.281306e-01 -4.745099e-01 4.541272e-01 4.448386e-01
3.200000e+09 4.629594e-01 4.452821e-01 5.194523e-01 -4.754002e-01 5.194525e-01 -4.754003e-01 4.627971e-01 4.454016e-01
3.250000e+09 4.715728e-01 4.456740e-01 5.108355e-01 -4.761291e-01 5.108357e-01 -4.761292e-01 4.714102e-01 4.457988e-01
3.300000e+09 4.801266e-01 4.459038e-01 5.022823e-01 -4.767003e-01 5.022825e-01 -4.767005e-01 4.799638e-01 4.460337e-01
3.350000e+09 4.886182e-01 4.459752e-01 4.937948e-01 -4.771180e-01 4.937950e-01 -4.771181e-01 4.884554e-01 4.461103e-01
3.400000e+09 4.970453e-01 4.458921e-01 4.853751e-01 -4.773858e-01 4.853753e-01 -4.773859e-01 4.968825e-01 4.460323e-01
3.450000e+09 5.054057e-01 4.456582e-01 4.770249e-01 -4.775076e-01 4.770251e-01 -4.775078e-01 5.052431e-01 4.458035e-01
3.500000e+09 5.136974e-01 4.452771e-01 4.687459e-01 -4.774873e-01 4.687461e-01 -4.774875e-01 5.135350e-01 4.454275e-01
3.550000e+09 5.219184e-01 4.447527e-01 4.605396e-01 -4.773285e-01 4.605397e-01 -4.773287e-01 5.217564e-01 4.449081e-01
3.600000e+09 5.300670e-01 4.440885e-01 4.524073e-01 -4.770349e-01 4.524074e-01 -4.770350e-01 5.299054e-01 4.442489e-01
3.650000e+09 5.381416e-01 4.432882e-01 4.443503e-01 -4.766099e-01 4.443505e-01 -4.766101e-01 5.379804e-01 4.434534e-01
3.700000e+09 5.461406e-01 4.423553e-01 4.363698e-01 -4.760573e-01 4.363699e-01 -4.760575e-01 5.459801e-01 4.425254e-01
3.750000e+09 5.540628e-01 4.412933e-01 4.284666e-01 -4.753803e-01 4.284667e-01 -4.753805e-01 5.539029e-01 4.414682e-01
3.800000e+09 5.619069e-01 4.401057e-01 4.206418e-01 -4.745824e-01 4.206419e-01 -4.745826e-01 5.617477e-01 4.402853e-01
3.850000e+09 5.696718e-01 4.387958e-01 4.128960e-01 -4.736667e-01 4.128962e-01 -4.736669e-01 5.695133e-01 4.389801e-01
3.900000e+09 5.773565e-01 4.373670e-01 4.052301e-01 -4.726366e-01 4.052302e-01 -4.726368e-01 5.771988e-01 4.375560e-01
3.950000e+09 5.849600e-01 4.358227e-01 3.976446e-01 -4.714951e-01 3.976447e-01 -4.714953e-01 5.848032e-01 4.360163e-01
4.000000e+09 5.924816e-01 4.341659e-01 3.901400e-01 -4.702453e-01 3.901402e-01 -4.702456e-01 5.923257e-01 4.343641e-01
4.050000e+09 5.999206e-01 4.324000e-01 3.827169e-01 -4.688902e-01 3.827170e-01 -4.688904e-01 5.997656e-01 4.326026e-01
4.100000e+09 6.072763e-01 4.305279e-01 3.753755e-01 -4.674326e-01 3.753757e-01 -4.674329e-01 6.071223e-01 4.307349e-01
4.150000e+09 6.145482e-01 4.285526e-01 3.681163e-01 -4.658754e-01 3.681164e-01 -4.658757e-01 6.143952e-01 4.287641e-01
4.200000e+09 6.217358e-01 4.264773e-01 3.609395e-01 -4.642214e-01 3.609396e-01 -4.642216e-01 6.215839e-01 4.266931e-01
4.250000e+09 6.288388e-01 4.243047e-01 3.538452e-01 -4.624731e-01 3.538453e-01 -4.624734e-01 6.286880e-01 4.245248e-01
4.300000e+09 6.358568e-01 4.220376e-01 3.468338e-01 -4.606333e-01 3.468339e-01 -4.606336e-01 6.357071e-01 4.222621e-01
4.350000e+09 6.427896e-01 4.196790e-01 3.399052e-01 -4.587044e-01 3.399053e-01 -4.587047e-01 6.426410e-01 4.199077e-01
4.400000e+09 6.496370e-01 4.172314e-01 3.330595e-01 -4.566889e-01 3.330596e-01 -4.566892e-01 6.494895e-01 4.174643e-01
4.450000e+09 6.563988e-01 4.146975e-01 3.262969e-01 -4.545892e-01 3.262970e-01 -4.545895e-01 6.562525e-01 4.149345e-01
4.500000e+09 6.630749e-01 4.120799e-01 3.196173e-01 -4.524076e-01 3.196174e-01 -4.524079e-01 6.629298e-01 4.123211e-01
4.550000e+09 6.696654e-01 4.093812e-01 3.130207e-01 -4.501465e-01 3.130208e-01 -4.501468e-01 6.695214e-01 4.096264e-01
4.600000e+09 6.761701e-01 4.066037e-01 3.065071e-01 -4.478080e-01 3.065072e-01 -4.478084e-01 6.760274e-01 4.068530e-01
4.650000e+09 6.825893e-01 4.037498e-01 3.000763e-01 -4.453944e-01 3.000764e-01 -4.453947e-01 6.824477e-01 4.040032e-01
4.700000e+09 6.889228e-01 4.008220e-01 2.937284e-01 -4.429076e-01 2.937285e-01 -4.429079e-01 6.887825e-01 4.010794e-01
4.750000e+09 6.951710e-01 3.978225e-01 2.874631e-01 -4.403498e-01 2.874632e-01 -4.403502e-01 6.950318e-01 3.980838e-01
4.800000e+09 7.013338e-01 3.947535e-01 2.812805e-01 -4.377230e-01 2.812805e-01 -4.377234e-01 7.011959e-01 3.950188e-01
4.850000e+09 7.074116e-01 3.916171e-01 2.751802e-01 -4.350292e-01 2.751802e-01 -4.350295e-01 7.072749e-01 3.918864e-01
4.900000e+09 7.134045e-01 3.884156e-01 2.691622e-01 -4.322702e-01 2.691622e-01 -4.322705e-01 7.132690e-01 3.886888e-01
4.950000e+09 7.193127e-01 3.851509e-01 2.632263e-01 -4.294479e-01 2.632263e-01 -4.294482e-01 7.191785e-01 3.854281e-01
5.000000e+09 7.251366e-01 3.818252e-01 2.573723e-01 -4.265642e-01 2.573723e-01 -4.265645e-01 7.250036e-01 3.821062e-01
5.050000e+09 7.308764e-01 3.784403e-01 2.516000e-01 -4.236208e-01 2.516000e-01 -4.236212e-01 7.307447e-01 3.787252e-01
5.100000e+09 7.365324e-01 3.749982e-01 2.459093e-01 -4.206196e-01 2.459093e-01 -4.206200e-01 7.364019e-01 3.752870e-01
5.150000e+09 7.421049e-01 3.715008e-01 2.402998e-01 -4.175623e-01 2.402998e-01 -4.175626e-01 7.419757e-01 3.717935e-01
5.200000e+09 7.475943e-01 3.679498e-01 2.347715e-01 -4.144504e-01 2.347715e-01 -4.144508e-01 7.474664e-01 3.682464e-01
5.250000e+09 7.530010e-01 3.643471e-01 2.293240e-01 -4.112858e-01 2.293239e-01 -4.112862e-01 7.528743e-01 3.646476e-01
5.300000e+09 7.583253e-01 3.606945e-01 2.239571e-01 -4.080700e-01 2.239570e-01 -4.080704e-01 7.581999e-01 3.609989e-01
5.350000e+09 7.635675e-01 3.569936e-01 2.186705e-01 -4.048047e-01 2.186705e-01 -4.048051e-01 7.634435e-01 3.573019e-01
5.400000e+09 7.687282e-01 3.532461e-01 2.134641e-01 -4.014914e-01 2.134641e-01 -4.014918e-01 7.686055e-01 3.535583e-01
5.450000e+09 7.738077e-01 3.494537e-01 2.083375e-01 -3.981317e-01 2.083375e-01 -3.981320e-01 7.736863e-01 3.497698e-01
5.500000e+09 7.788065e-01 3.456179e-01 2.032905e-01 -3.947271e-01 2.032905e-01 -3.947274e-01 7.786864e-01 3.459379e-01
5.550000e+09 7.837249e-01 3.417403e-01 1.983228e-01 -3.912791e-01 1.983227e-01 -3.912795e-01 7.836061e-01 3.420642e-01
5.600000e+09 7.885635e-01 3.378224e-01 1.934341e-01 -3.877893e-01 1.934340e-01 -3.877896e-01 7.884460e-01 3.381502e-01
5.650000e+09 7.933226e-01 3.338657e-01 1.886240e-01 -3.842590e-01 1.886239e-01 -3.842593e-01 7.932065e-01 3.341974e-01
5.700000e+09 7.980028e-01 3.298717e-01 1.838923e-01 -3.806898e-01 1.838922e-01 -3.806901e-01 7.978881e-01 3.302074e-01
5.750000e+09 8.026045e-01 3.258418e-01 1.792386e-01 -3.770830e-01 1.792385e-01 -3.770833e-01 8.024912e-01 3.261814e-01
5.800000e+09 8.071282e-01 3.217774e-01 1.746627e-01 -3.734401e-01 1.746626e-01 -3.734404e-01 8.070163e-01 3.221210e-01
5.850000e+09 8.115744e-01 3.176799e-01 1.701641e-01 -3.697624e-01 1.701640e-01 -3.697628e-01 8.114639e-01 3.180275e-01
5.900000e+09 8.159435e-01 3.135506e-01 1.657424e-01 -3.660514e-01 1.657423e-01 -3.660517e-01 8.158345e-01 3.139022e-01
5.950000e+09 8.202362e-01 3.093909e-01 1.613974e-01 -3.623084e-01 1.613973e-01 -3.623087e-01 8.201286e-01 3.097464e-01
6.000000e+09 8.244528e-01 3.052020e-01 1.571287e-01 -3.585347e-01 1.571285e-01 -3.585350e-01 8.243468e-01 3.055615e-01
6.050000e+09 8.285939e-01 3.009851e-01 1.529357e-01 -3.547316e-01 1.529355e-01 -3.547319e-01 8.284895e-01 3.013487e-01
6.100000e+09 8.326601e-01 2.967416e-01 1.488181e-01 -3.509004e-01 1.488180e-01 -3.509008e-01 8.325572e-01 2.971092e-01
6.150000e+09 8.366519e-01 2.924727e-01 1.447756e-01 -3.470425e-01 1.447754e-01 -3.470428e-01 8.365506e-01 2.928443e-01
6.200000e+09 8.405698e-01 2.881794e-01 1.408076e-01 -3.431590e-01 1.408074e-01 -3.431594e-01 8.404700e-01 2.885551e-01
6.250000e+09 8.444143e-01 2.838630e-01 1.369136e-01 -3.392513e-01 1.369134e-01 -3.392516e-01 8.443162e-01 2.842427e-01
6.300000e+09 8.481860e-01 2.795247e-01 1.330933e-01 -3.353205e-01 1.330931e-01 -3.353208e-01 8.480896e-01 2.799084e-01
6.350000e+09 8.518855e-01 2.751654e-01 1.293461e-01 -3.313679e-01 1.293459e-01 -3.313682e-01 8.517908e-01 2.755533e-01
6.400000e+09 8.555133e-01 2.707864e-01 1.256715e-01 -3.273946e-01 1.256713e-01 -3.273949e-01 8.554204e-01 2.711783e-01
6.450000e+09 8.590701e-01 2.663887e-01 1.220691e-01 -3.234018e-01 1.220689e-01 -3.234021e-01 8.589788e-01 2.667847e-01
6.500000e+09 8.625562e-01 2.619733e-01 1.185382e-01 -3.193907e-01 1.185380e-01 -3.193910e-01 8.624668e-01 2.623734e-01
6.550000e+09 8.659725e-01 2.575413e-01 1.150784e-01 -3.153623e-01 1.150782e-01 -3.153626e-01 8.658849e-01 2.579455e-01
6.600000e+09 8.693193e-01 2.530936e-01 1.116891e-01 -3.113178e-01 1.116889e-01 -3.113181e-01 8.692336e-01 2.535019e-01
6.650000e+09 8.725974e-01 2.486313e-01 1.083698e-01 -3.072583e-01 1.083696e-01 -3.072586e-01 8.725135e-01 2.490436e-01
6.700000e+09 8.758073e-01 2.441552e-01 1.051198e-01 -3.031848e-01 1.051195e-01 -3.031850e-01 8.757254e-01 2.445717e-01
6.750000e+09 8.789496e-01 2.396664e-01 1.019385e-01 -2.990983e-01 1.019383e-01 -2.990986e-01 8.788696e-01 2.400869e-01
6.800000e+09 8.820249e-01 2.351656e-01 9.882540e-02 -2.949999e-01 9.882517e-02 -2.950002e-01 8.819469e-01 2.355903e-01
6.850000e+09 8.850338e-01 2.306540e-01 9.577984e-02 -2.908906e-01 9.577960e-02 -2.908908e-01 8.849579e-01 2.310828e-01
6.900000e+09 8.879770e-01 2.261322e-01 9.280118e-02 -2.867712e-01 9.280094e-02 -2.867715e-01 8.879031e-01 2.265651e-01
6.950000e+09 8.908550e-01 2.216011e-01 8.988880e-02 -2.826429e-01 8.988856e-02 -2.826431e-01 8.907832e-01 2.220381e-01
7.000000e+09 8.936684e-01 2.170616e-01 8.704204e-02 -2.785064e-01 8.704180e-02 -2.785066e-01 8.935988e-01 2.175027e-01
7.050000e+09 8.964180e-01 2.125145e-01 8.426026e-02 -2.743627e-01 8.426002e-02 -2.743629e-01 8.963506e-01 2.129597e-01
7.100000e+09 8.991042e-01 2.079605e-01 8.154278e-02 -2.702126e-01 8.154254e-02 -2.702128e-01 8.990390e-01 2.084098e-01
7.150000e+09 9.017278e-01 2.034004e-01 7.888893e-02 -2.660570e-01 7.888869e-02 -2.660572e-01 9.016648e-01 2.038538e-01
7.200000e+09 9.042893e-01 1.988350e-01 7.629804e-02 -2.618967e-01 7.629780e-02 -2.618969e-01 9.042286e-01 1.992925e-01
7.250000e+09 9.067894e-01 1.942650e-01 7.376943e-02 -2.577325e-01 7.376918e-02 -2.577327e-01 9.067310e-01 1.947265e-01
7.300000e+09 9.092286e-01 1.896911e-01 7.130239e-02 -2.535652e-01 7.130215e-02 -2.535653e-01 9.091727e-01 1.901567e-01
7.350000e+09 9.116078e-01 1.851139e-01 6.889625e-02 -2.493954e-01 6.889600e-02 -2.493956e-01 9.115542e-01 1.855835e-01
7.400000e+09 9.139273e-01 1.805341e-01 6.655030e-02 -2.452239e-01 6.655006e-02 -2.452241e-01 9.138762e-01 1.810078e-01
7.450000e+09 9.161880e-01 1.759524e-01 6.426385e-02 -2.410514e-01 6.426360e-02 -2.410516e-01 9.161393e-01 1.764302e-01
7.500000e+09 9.183904e-01 1.713694e-01 6.203619e-02 -2.368786e-01 6.203595e-02 -2.368787e-01 9.183441e-01 1.718512e-01
7.550000e+09 9.205351e-01 1.667857e-01 5.986663e-02 -2.327060e-01 5.986639e-02 -2.327062e-01 9.204913e-01 1.672715e-01
7.600000e+09 9.226227e-01 1.622019e-01 5.775446e-02 -2.285344e-01 5.775422e-02 -2.285345e-01 9.225815e-01 1.626917e-01
7.650000e+09 9.246539e-01 1.576185e-01 5.569900e-02 -2.243642e-01 5.569876e-02 -2.243643e-01 9.246153e-01 1.581123e-01
7.700000e+09 9.266294e-01 1.530361e-01 5.369953e-02 -2.201960e-01 5.369930e-02 -2.201962e-01 9.265934e-01 1.535339e-01
7.750000e+09 9.285496e-01 1.484552e-01 5.175538e-02 -2.160305e-01 5.175514e-02 -2.160306e-01 9.285162e-01 1.489569e-01
7.800000e+09 9.304153e-01 1.438763e-01 4.986584e-02 -2.118680e-01 4.986561e-02 -2.118681e-01 9.303845e-01 1.443820e-01
7.850000e+09 9.322270e-01 1.393000e-01 4.803024e-02 -2.077091e-01 4.803001e-02 -2.077092e-01 9.321989e-01 1.398096e-01
7.900000e+09 9.339853e-01 1.347266e-01 4.624790e-02 -2.035543e-01 4.624767e-02 -2.035544e-01 9.339600e-01 1.352402e-01
7.950000e+09 9.356909e-01 1.301567e-01 4.451813e-02 -1.994039e-01 4.451791e-02 -1.994040e-01 9.356683e-01 1.306742e-01
8.000000e+09 9.373443e-01 1.255906e-01 4.284029e-02 -1.952585e-01 4.284007e-02 -1.952586e-01 9.373244e-01 1.261120e-01
8.050000e+09 9.389461e-01 1.210289e-01 4.121370e-02 -1.911183e-01 4.121348e-02 -1.911184e-01 9.389290e-01 1.215542e-01
8.100000e+09 9.404970e-01 1.164719e-01 3.963773e-02 -1.869839e-01 3.963751e-02 -1.869840e-01 9.404827e-01 1.170011e-01
8.150000e+09 9.419974e-01 1.119200e-01 3.811172e-02 -1.828555e-01 3.811151e-02 -1.828556e-01 9.419859e-01 1.124530e-01
8.200000e+09 9.434479e-01 1.073736e-01 3.663505e-02 -1.787335e-01 3.663484e-02 -1.787336e-01 9.434393e-01 1.079105e-01
8.250000e+09 9.448492e-01 1.028330e-01 3.520710e-02 -1.746182e-01 3.520689e-02 -1.746184e-01 9.448435e-01 1.033738e-01
8.300000e+09 9.462018e-01 9.829865e-02 3.382726e-02 -1.705100e-01 3.382705e-02 -1.705101e-01 9.461989e-01 9.884325e-02
8.350000e+09 9.475062e-01 9.377083e-02 3.249492e-02 -1.664091e-01 3.249471e-02 -1.664092e-01 9.475063e-01 9.431926e-02
8.400000e+09 9.487630e-01 8.924988e-02 3.120950e-02 -1.623157e-01 3.120929e-02 -1.623158e-01 9.487660e-01 8.980213e-02
8.450000e+09 9.499727e-01 8.473610e-02 2.997042e-02 -1.582302e-01 2.997021e-02 -1.582303e-01 9.499786e-01 8.529215e-02
8.500000e+09 9.511358e-01 8.022978e-02 2.877711e-02 -1.541528e-01 2.877691e-02 -1.541529e-01 9.511447e-01 8.078964e-02
8.550000e+09 9.522529e-01 7.573123e-02 2.762904e-02 -1.500838e-01 2.762884e-02 -1.500839e-01 9.522648e-01 7.629488e-02
8.600000e+09 9.533245e-01 7.124070e-02 2.652564e-02 -1.460232e-01 2.652545e-02 -1.460233e-01 9.533394e-01 7.180813e-02
8.650000e+09 9.543510e-01 6.675847e-02 2.546641e-02 -1.419714e-01 2.546621e-02 -1.419715e-01 9.543690e-01 6.732968e-02
8.700000e+09 9.553331e-01 6.228480e-02 2.445082e-02 -1.379286e-01 2.445063e-02 -1.379287e-01 9.553541e-01 6.285976e-02
8.750000e+09 9.562711e-01 5.781991e-02 2.347837e-02 -1.338948e-01 2.347818e-02 -1.338949e-01 9.562951e-01 5.839864e-02
8.800000e+09 9.571655e-01 5.336405e-02 2.254858e-02 -1.298704e-01 2.254839e-02 -1.298705e-01 9.571927e-01 5.394653e-02
8.850000e+09 9.580169e-01 4.891745e-02 2.166096e-02 -1.258554e-01 2.166078e-02 -1.258555e-01 9.580472e-01 4.950368e-02
8.900000e+09 9.588257e-01 4.448032e-02 2.081506e-02 -1.218501e-01 2.081488e-02 -1.218502e-01 9.588591e-01 4.507029e-02
8.950000e+09 9.595923e-01 4.005287e-02 2.001043e-02 -1.178545e-01 2.001024e-02 -1.178546e-01 9.596288e-01 4.064657e-02
9.000000e+09 9.603172e-01 3.563531e-02 1.924661e-02 -1.138689e-01 1.924643e-02 -1.138690e-01 9.603569e-01 3.623274e-02
9.050000e+09 9.610009e-01 3.122782e-02 1.852320e-02 -1.098934e-01 1.852302e-02 -1.098935e-01 9.610437e-01 3.182898e-02
9.100000e+09 9.616437e-01 2.683061e-02 1.783977e-02 -1.059280e-01 1.783959e-02 -1.059281e-01 9.616897e-01 2.743549e-02
9.150000e+09 9.622461e-01 2.244384e-02 1.719593e-02 -1.019730e-01 1.719574e-02 -1.019731e-01 9.622953e-01 2.305245e-02
9.200000e+09 9.628085e-01 1.806771e-02 1.659127e-02 -9.802844e-02 1.659109e-02 -9.802854e-02 9.628609e-01 1.868003e-02
9.250000e+09 9.633313e-01 1.370237e-02 1.602542e-02 -9.409448e-02 1.602524e-02 -9.409459e-02 9.633870e-01 1.431841e-02
9.300000e+09 9.638149e-01 9.348003e-03 1.549802e-02 -9.017124e-02 1.549784e-02 -9.017135e-02 9.638739e-01 9.967753e-03
9.350000e+09 9.642597e-01 5.004763e-03 1.500869e-02 -8.625884e-02 1.500851e-02 -8.625895e-02 9.643220e-01 5.628225e-03
9.400000e+09 9.646661e-01 6.728110e-04 1.455710e-02 -8.235741e-02 1.455692e-02 -8.235752e-02 9.647317e-01 1.299983e-03
9.450000e+09 9.650345e-01 -3.647700e-03 1.414290e-02 -7.846705e-02 1.414272e-02 -7.846716e-02 9.651034e-01 -3.016818e-03
9.500000e+09 9.653652e-01 -7.956619e-03 1.376575e-02 -7.458790e-02 1.376557e-02 -7.458801e-02 9.654375e-01 -7.322028e-03
9.550000e+09 9.656586e-01 -1.225380e-02 1.342534e-02 -7.072007e-02 1.342516e-02 -7.072018e-02 9.657343e-01 -1.161550e-02
9.600000e+09 9.659151e-01 -1.653910e-02 1.312135e-02 -6.686369e-02 1.312117e-02 -6.686380e-02 9.659941e-01 -1.589709e-02
9.650000e+09 9.661350e-01 -2.081237e-02 1.285348e-02 -6.301887e-02 1.285330e-02 -6.301898e-02 9.662174e-01 -2.016665e-02
9.700000e+09 9.663187e-01 -2.507347e-02 1.262141e-02 -5.918574e-02 1.262123e-02 -5.918585e-02 9.664045e-01 -2.442405e-02
9.750000e+09 9.664664e-01 -2.932228e-02 1.242486e-02 -5.536442e-02 1.242468e-02 -5.536453e-02 9.665557e-01 -2.866914e-02
9.800000e+09 9.665786e-01 -3.355865e-02 1.226354e-02 -5.155505e-02 1.226336e-02 -5.155516e-02 9.666714e-01 -3.290180e-02
9.850000e+09 9.666555e-01 -3.778244e-02 1.213717e-02 -4.775774e-02 1.213698e-02 -4.775785e-02 9.667518e-01 -3.712189e-02
9.900000e+09 9.666975e-01 -4.199354e-02 1.204546e-02 -4.397263e-02 1.204527e-02 -4.397274e-02 9.667974e-01 -4.132927e-02
9.950000e+09 9.667050e-01 -4.619181e-02 1.198814e-02 -4.019985e-02 1.198795e-02 -4.019996e-02 9.668084e-01 -4.552383e-02
1.000000e+10 9.666781e-01 -5.037711e-02 1.196494e-02 -3.643953e-02 1.196476e-02 -3.643964e-02 9.667851e-01 -4.970542e-02
1.005000e+10 9.666173e-01 -5.454933e-02 1.197560e-02 -3.269181e-02 1.197541e-02 -3.269192e-02 9.667279e-01 -5.387393e-02
1.010000e+10 9.665228e-01 -5.870834e-02 1.201985e-02 -2.895682e-02 1.201966e-02 -2.895693e-02 9.666370e-01 -5.802922e-02
1.015000e+10 9.663949e-01 -6.285400e-02 1.209743e-02 -2.523471e-02 1.209724e-02 -2.523482e-02 9.665128e-01 -6.217118e-02
1.020000e+10 9.662340e-01 -6.698621e-02 1.220807e-02 -2.152562e-02 1.220789e-02 -2.152572e-02 9.663556e-01 -6.629967e-02
1.025000e+10 9.660403e-01 -7.110483e-02 1.235153e-02 -1.782968e-02 1.235135e-02 -1.782979e-02 9.661656e-01 -7.041458e-02
1.030000e+10 9.658141e-01 -7.520974e-02 1.252755e-02 -1.414705e-02 1.252737e-02 -1.414715e-02 9.659431e-01 -7.451578e-02
1.035000e+10 9.655557e-01 -7.930082e-02 1.273587e-02 -1.047787e-02 1.273568e-02 -1.047797e-02 9.656885e-01 -7.860315e-02
1.040000e+10 9.652654e-01 -8.337795e-02 1.297623e-02 -6.822286e-03 1.297604e-02 -6.822385e-03 9.654021e-01 -8.267657e-02
1.045000e+10 9.649435e-01 -8.744101e-02 1.324837e-02 -3.180449e-03 1.324819e-02 -3.180546e-03 9.650840e-01 -8.673593e-02
1.050000e+10 9.645903e-01 -9.148989e-02 1.355206e-02 4.474935e-04 1.355187e-02 4.473977e-04 9.647346e-01 -9.078110e-02
1.055000e+10 9.642060e-01 -9.552446e-02 1.388702e-02 4.061390e-03 1.388683e-02 4.061296e-03 9.643542e-01 -9.481197e-02
1.060000e+10 9.637909e-01 -9.954461e-02 1.425300e-02 7.661090e-03 1.425282e-02 7.660998e-03 9.639430e-01 -9.882842e-02
1.065000e+10 9.633453e-01 -1.035502e-01 1.464975e-02 1.124644e-02 1.464956e-02 1.124635e-02 9.635014e-01 -1.028303e-01
1.070000e+10 9.628694e-01 -1.075412e-01 1.507700e-02 1.481730e-02 1.507681e-02 1.481721e-02 9.630295e-01 -1.068176e-01
1.075000e+10 9.623636e-01 -1.115174e-01 1.553450e-02 1.837351e-02 1.553431e-02 1.837343e-02 9.625277e-01 -1.107901e-01
1.080000e+10 9.618281e-01 -1.154787e-01 1.602198e-02 2.191493e-02 1.602180e-02 2.191484e-02 9.619962e-01 -1.147477e-01
1.085000e+10 9.612631e-01 -1.194250e-01 1.653918e-02 2.544140e-02 1.653900e-02 2.544132e-02 9.614354e-01 -1.186904e-01
1.090000e+10 9.606690e-01 -1.233563e-01 1.708585e-02 2.895278e-02 1.708567e-02 2.895270e-02 9.608454e-01 -1.226180e-01
1.095000e+10 9.600460e-01 -1.272723e-01 1.766170e-02 3.244893e-02 1.766153e-02 3.244885e-02 9.602265e-01 -1.265303e-01
1.100000e+10 9.593944e-01 -1.311730e-01 1.826648e-02 3.592970e-02 1.826631e-02 3.592962e-02 9.595791e-01 -1.304274e-01
1.105000e+10 9.587144e-01 -1.350583e-01 1.889992e-02 3.939495e-02 1.889974e-02 3.939488e-02 9.589033e-01 -1.343090e-01
1.110000e+10 9.580063e-01 -1.389281e-01 1.956174e-02 4.284455e-02 1.956157e-02 4.284447e-02 9.581994e-01 -1.381752e-01
1.115000e+10 9.572703e-01 -1.427823e-01 2.025167e-02 4.627835e-02 2.025150e-02 4.627828e-02 9.574677e-01 -1.420257e-01
1.120000e+10 9.565068e-01 -1.466208e-01 2.096944e-02 4.969623e-02 2.096927e-02 4.969616e-02 9.567085e-01 -1.458605e-01
1.125000e+10 9.557159e-01 -1.504434e-01 2.171477e-02 5.309805e-02 2.171460e-02 5.309799e-02 9.559220e-01 -1.496796e-01
1.130000e+10 9.548980e-01 -1.542502e-01 2.248738e-02 5.648370e-02 2.248722e-02 5.648364e-02 9.551085e-01 -1.534827e-01
1.135000e+10 9.540533e-01 -1.580409e-01 2.328700e-02 5.985305e-02 2.328685e-02 5.985299e-02 9.542681e-01 -1.572698e-01
1.140000e+10 9.531820e-01 -1.618155e-01 2.411336e-02 6.320598e-02 2.411320e-02 6.320592e-02 9.534013e-01 -1.610409e-01
1.145000e+10 9.522844e-01 -1.655740e-01 2.496615e-02 6.654238e-02 2.496600e-02 6.654232e-02 9.525082e-01 -1.647957e-01
1.150000e+10 9.513608e-01 -1.693162e-01 2.584512e-02 6.986214e-02 2.584497e-02 6.986209e-02 9.515891e-01 -1.685344e-01
1.155000e+10 9.504114e-01 -1.730421e-01 2.674998e-02 7.316517e-02 2.674983e-02 7.316511e-02 9.506442e-01 -1.722567e-01
1.160000e+10 9.494365e-01 -1.767515e-01 2.768044e-02 7.645134e-02 2.768029e-02 7.645129e-02 9.496739e-01 -1.759626e-01
1.165000e+10 9.484363e-01 -1.804445e-01 2.863622e-02 7.972059e-02 2.863608e-02 7.972054e-02 9.486783e-01 -1.796520e-01
1.170000e+10 9.474110e-01 -1.841208e-01 2.961705e-02 8.297281e-02 2.961692e-02 8.297275e-02 9.476577e-01 -1.833248e-01
1.175000e+10 9.463610e-01 -1.877805e-01 3.062264e-02 8.620792e-02 3.062251e-02 8.620786e-02 9.466123e-01 -1.869810e-01
1.180000e+10 9.452865e-01 -1.914235e-01 3.165272e-02 8.942584e-02 3.165259e-02 8.942579e-02 9.455425e-01 -1.906205e-01
1.185000e+10 9.441876e-01 -1.950497e-01 3.270700e-02 9.262649e-02 3.270688e-02 9.262644e-02 9.444484e-01 -1.942432e-01
1.190000e+10 9.430647e-01 -1.986591e-01 3.378521e-02 9.580982e-02 3.378509e-02 9.580977e-02 9.433302e-01 -1.978490e-01
1.195000e+10 9.419181e-01 -2.022515e-01 3.488707e-02 9.897575e-02 3.488696e-02 9.897570e-02 9.421884e-01 -2.014380e-01
1.200000e+10 9.407478e-01 -2.058270e-01 3.601232e-02 1.021242e-01 3.601221e-02 1.021242e-01 9.410229e-01 -2.050100e-01
1.205000e+10 9.395543e-01 -2.093855e-01 3.716067e-02 1.052552e-01 3.716057e-02 1.052552e-01 9.398342e-01 -2.085650e-01
1.210000e+10 9.383376e-01 -2.129268e-01 3.833186e-02 1.083686e-01 3.833176e-02 1.083686e-01 9.386225e-01 -2.121030e-01
1.215000e+10 9.370982e-01 -2.164511e-01 3.952562e-02 1.114644e-01 3.952553e-02 1.114644e-01 9.373879e-01 -2.156238e-01
1.220000e+10 9.358361e-01 -2.199581e-01 4.074169e-02 1.145426e-01 4.074160e-02 1.145426e-01 9.361308e-01 -2.191275e-01
1.225000e+10 9.345516e-01 -2.234480e-01 4.197981e-02 1.176031e-01 4.197973e-02 1.176031e-01 9.348513e-01 -2.226139e-01
1.230000e+10 9.332450e-01 -2.269206e-01 4.323972e-02 1.206459e-01 4.323964e-02 1.206459e-01 9.335496e-01 -2.260832e-01
1.235000e+10 9.319164e-01 -2.303759e-01 4.452117e-02 1.236710e-01 4.452109e-02 1.236710e-01 9.322261e-01 -2.295351e-01
1.240000e+10 9.305662e-01 -2.338138e-01 4.582390e-02 1.266784e-01 4.582384e-02 1.266783e-01 9.308809e-01 -2.329697e-01
1.245000e+10 9.291944e-01 -2.372344e-01 4.714768e-02 1.296680e-01 4.714762e-02 1.296679e-01 9.295143e-01 -2.363869e-01
1.250000e+10 9.278014e-01 -2.406375e-01 4.849226e-02 1.326398e-01 4.849220e-02 1.326397e-01 9.281264e-01 -2.397868e-01
1.255000e+10 9.263874e-01 -2.440233e-01 4.985740e-02 1.355938e-01 4.985735e-02 1.355937e-01 9.267175e-01 -2.431692e-01
1.260000e+10 9.249525e-01 -2.473915e-01 5.124287e-02 1.385300e-01 5.124283e-02 1.385300e-01 9.252878e-01 -2.465341e-01
1.265000e+10 9.234970e-01 -2.507423e-01 5.264844e-02 1.414485e-01 5.264841e-02 1.414484e-01 9.238375e-01 -2.498816e-01
1.270000e+10 9.220211e-01 -2.540755e-01 5.407390e-02 1.443491e-01 5.407386e-02 1.443491e-01 9.223668e-01 -2.532116e-01
1.275000e+10 9.205250e-01 -2.573912e-01 5.551901e-02 1.472320e-01 5.551898e-02 1.472319e-01 9.208760e-01 -2.565241e-01
1.280000e+10 9.190089e-01 -2.606894e-01 5.698358e-02 1.500971e-01 5.698355e-02 1.500970e-01 9.193651e-01 -2.598190e-01
1.285000e+10 9.174730e-01 -2.639699e-01 5.846738e-02 1.529444e-01 5.846736e-02 1.529443e-01 9.178345e-01 -2.630963e-01
1.290000e+10 9.159175e-01 -2.672329e-01 5.997021e-02 1.557740e-01 5.997020e-02 1.557739e-01 9.162843e-01 -2.663560e-01
1.295000e+10 9.143426e-01 -2.704782e-01 6.149188e-02 1.585857e-01 6.149187e-02 1.585857e-01 9.147148e-01 -2.695981e-01
1.300000e+10 9.127484e-01 -2.737059e-01 6.303220e-02 1.613798e-01 6.303219e-02 1.613797e-01 9.131260e-01 -2.728227e-01
1.305000e+10 9.111352e-01 -2.769159e-01 6.459097e-02 1.641561e-01 6.459097e-02 1.641560e-01 9.115182e-01 -2.760295e-01
1.310000e+10 9.095032e-01 -2.801083e-01 6.616801e-02 1.669147e-01 6.616801e-02 1.669146e-01 9.098916e-01 -2.792187e-01
1.315000e+10 9.078525e-01 -2.832830e-01 6.776314e-02 1.696556e-01 6.776315e-02 1.696555e-01 9.082464e-01 -2.823903e-01
1.320000e+10 9.061833e-01 -2.864400e-01 6.937619e-02 1.723788e-01 6.937620e-02 1.723787e-01 9.065827e-01 -2.855442e-01
1.325000e+10 9.044958e-01 -2.895793e-01 7.100699e-02 1.750843e-01 7.100700e-02 1.750842e-01 9.049007e-01 -2.886803e-01
1.330000e+10 9.027901e-01 -2.927009e-01 7.265538e-02 1.777721e-01 7.265539e-02 1.777720e-01 9.032006e-01 -2.917988e-01
1.335000e+10 9.010665e-01 -2.958047e-01 7.432119e-02 1.804423e-01 7.432121e-02 1.804422e-01 9.014826e-01 -2.948996e-01
1.340000e+10 8.993251e-01 -2.988908e-01 7.600427e-02 1.830949e-01 7.600429e-02 1.830948e-01 8.997468e-01 -2.979826e-01
1.345000e+10 8.975660e-01 -3.019592e-01 7.770446e-02 1.857298e-01 7.770449e-02 1.857297e-01 8.979934e-01 -3.010479e-01
1.350000e+10 8.957895e-01 -3.050098e-01 7.942163e-02 1.883471e-01 7.942167e-02 1.883470e-01 8.962225e-01 -3.040954e-01
1.355000e+10 8.939957e-01 -3.080426e-01 8.115563e-02 1.909468e-01 8.115567e-02 1.909467e-01 8.944344e-01 -3.071252e-01
1.360000e+10 8.921847e-01 -3.110576e-01 8.290632e-02 1.935289e-01 8.290635e-02 1.935287e-01 8.926291e-01 -3.101372e-01
1.365000e+10 8.903567e-01 -3.140548e-01 8.467355e-02 1.960933e-01 8.467359e-02 1.960932e-01 8.908069e-01 -3.131314e-01
1.370000e+10 8.885119e-01 -3.170342e-01 8.645721e-02 1.986402e-01 8.645725e-02 1.986400e-01 8.889679e-01 -3.161078e-01
1.375000e+10 8.866504e-01 -3.199958e-01 8.825716e-02 2.011694e-01 8.825720e-02 2.011693e-01 8.871122e-01 -3.190664e-01
1.380000e+10 8.847724e-01 -3.229396e-01 9.007326e-02 2.036811e-01 9.007331e-02 2.036809e-01 8.852400e-01 -3.220072e-01
1.385000e+10 8.828779e-01 -3.258655e-01 9.190541e-02 2.061751e-01 9.190546e-02 2.061750e-01 8.833514e-01 -3.249301e-01
1.390000e+10 8.809672e-01 -3.287735e-01 9.375346e-02 2.086515e-01 9.375352e-02 2.086514e-01 8.814466e-01 -3.278352e-01
1.395000e+10 8.790404e-01 -3.316636e-01 9.561731e-02 2.111103e-01 9.561737e-02 2.111101e-01 8.795258e-01 -3.307223e-01
1.400000e+10 8.770977e-01 -3.345358e-01 9.749684e-02 2.135514e-01 9.749690e-02 2.135513e-01 8.775890e-01 -3.335916e-01
1.405000e+10 8.751391e-01 -3.373902e-01 9.939193e-02 2.159749e-01 9.939198e-02 2.159747e-01 8.756364e-01 -3.364430e-01
1.410000e+10 8.731649e-01 -3.402265e-01 1.013025e-01 2.183807e-01 1.013025e-01 2.183805e-01 8.736682e-01 -3.392765e-01
1.415000e+10 8.711751e-01 -3.430449e-01 1.032283e-01 2.207688e-01 1.032284e-01 2.207686e-01 8.716845e-01 -3.420920e-01
1.420000e+10 8.691699e-01 -3.458454e-01 1.051694e-01 2.231391e-01 1.051694e-01 2.231390e-01 8.696853e-01 -3.448896e-01
1.425000e+10 8.671494e-01 -3.486278e-01 1.071255e-01 2.254917e-01 1.071256e-01 2.254916e-01 8.676710e-01 -3.476691e-01
1.430000e+10 8.651138e-01 -3.513922e-01 1.090967e-01 2.278266e-01 1.090968e-01 2.278264e-01 8.656416e-01 -3.504307e-01
1.435000e+10 8.630632e-01 -3.541385e-01 1.110827e-01 2.301436e-01 1.110828e-01 2.301434e-01 8.635972e-01 -3.531742e-01
1.440000e+10 8.609978e-01 -3.568668e-01 1.130835e-01 2.324427e-01 1.130836e-01 2.324425e-01 8.615379e-01 -3.558997e-01
1.445000e+10 8.589176e-01 -3.595770e-01 1.150989e-01 2.347240e-01 1.150990e-01 2.347238e-01 8.594640e-01 -3.586071e-01
1.450000e+10 8.568228e-01 -3.622691e-01 1.171289e-01 2.369873e-01 1.171289e-01 2.369871e-01 8.573755e-01 -3.612963e-01
1.455000e+10 8.547136e-01 -3.649430e-01 1.191733e-01 2.392327e-01 1.191733e-01 2.392325e-01 8.552726e-01 -3.639675e-01
1.460000e+10 8.525900e-01 -3.675988e-01 1.212319e-01 2.414601e-01 1.212320e-01 2.414599e-01 8.531554e-01 -3.666205e-01
1.465000e+10 8.504523e-01 -3.702363e-01 1.233048e-01 2.436694e-01 1.233048e-01 2.436692e-01 8.510241e-01 -3.692553e-01
1.470000e+10 8.483005e-01 -3.728556e-01 1.253917e-01 2.458606e-01 1.253917e-01 2.458604e-01 8.488787e-01 -3.718719e-01
1.475000e+10 8.461347e-01 -3.754567e-01 1.274925e-01 2.480337e-01 1.274926e-01 2.480334e-01 8.467194e-01 -3.744702e-01
1.480000e+10 8.439552e-01 -3.780395e-01 1.296072e-01 2.501885e-01 1.296073e-01 2.501883e-01 8.445463e-01 -3.770503e-01
1.485000e+10 8.417620e-01 -3.806039e-01 1.317356e-01 2.523251e-01 1.317356e-01 2.523249e-01 8.423597e-01 -3.796121e-01
1.490000e+10 8.395553e-01 -3.831500e-01 1.338775e-01 2.544434e-01 1.338776e-01 2.544432e-01 8.401595e-01 -3.821555e-01
1.495000e+10 8.373351e-01 -3.856778e-01 1.360329e-01 2.565434e-01 1.360329e-01 2.565432e-01 8.379460e-01 -3.846806e-01
1.500000e+10 8.351018e-01 -3.881871e-01 1.382015e-01 2.586249e-01 1.382016e-01 2.586247e-01 8.357192e-01 -3.871873e-01
1.505000e+10 8.328552e-01 -3.906779e-01 1.403834e-01 2.606880e-01 1.403835e-01 2.606878e-01 8.334793e-01 -3.896755e-01
1.510000e+10 8.305957e-01 -3.931503e-01 1.425783e-01 2.627326e-01 1.425784e-01 2.627323e-01 8.312265e-01 -3.921454e-01
1.515000e+10 8.283234e-01 -3.956042e-01 1.447861e-01 2.647586e-01 1.447862e-01 2.647583e-01 8.289609e-01 -3.945967e-01
1.520000e+10 8.260383e-01 -3.980396e-01 1.470067e-01 2.667660e-01 1.470067e-01 2.667657e-01 8.266826e-01 -3.970295e-01
1.525000e+10 8.237406e-01 -4.004564e-01 1.492399e-01 2.687547e-01 1.492399e-01 2.687544e-01 8.243917e-01 -3.994438e-01
1.530000e+10 8.214305e-01 -4.028546e-01 1.514856e-01 2.707247e-01 1.514856e-01 2.707244e-01 8.220884e-01 -4.018395e-01
1.535000e+10 8.191080e-01 -4.052342e-01 1.537436e-01 2.726759e-01 1.537436e-01 2.726756e-01 8.197729e-01 -4.042166e-01
1.540000e+10 8.167734e-01 -4.075952e-01 1.560138e-01 2.746082e-01 1.560139e-01 2.746080e-01 8.174452e-01 -4.065751e-01
1.545000e+10 8.144268e-01 -4.099374e-01 1.582961e-01 2.765218e-01 1.582961e-01 2.765215e-01 8.151055e-01 -4.089149e-01
1.550000e+10 8.120682e-01 -4.122610e-01 1.605902e-01 2.784164e-01 1.605903e-01 2.784161e-01 8.127539e-01 -4.112360e-01
1.555000e+10 8.096979e-01 -4.145658e-01 1.628961e-01 2.802920e-01 1.628962e-01 2.802917e-01 8.103906e-01 -4.135384e-01
1.560000e+10 8.073160e-01 -4.168518e-01 1.652136e-01 2.821486e-01 1.652136e-01 2.821484e-01 8.080157e-01 -4.158221e-01
1.565000e+10 8.049226e-01 -4.191191e-01 1.675425e-01 2.839862e-01 1.675425e-01 2.839859e-01 8.056294e-01 -4.180870e-01
1.570000e+10 8.025179e-01 -4.213675e-01 1.698826e-01 2.858047e-01 1.698827e-01 2.858044e-01 8.032318e-01 -4.203331e-01
1.575000e+10 8.001020e-01 -4.235971e-01 1.722339e-01 2.876040e-01 1.722340e-01 2.876038e-01 8.008230e-01 -4.225604e-01
1.580000e+10 7.976750e-01 -4.258079e-01 1.745962e-01 2.893843e-01 1.745962e-01 2.893840e-01 7.984033e-01 -4.247689e-01
1.585000e+10 7.952371e-01 -4.279997e-01 1.769692e-01 2.911453e-01 1.769692e-01 2.911450e-01 7.959726e-01 -4.269585e-01
1.590000e+10 7.927885e-01 -4.301727e-01 1.793528e-01 2.928871e-01 1.793529e-01 2.928868e-01 7.935312e-01 -4.291292e-01
1.595000e+10 7.903292e-01 -4.323267e-01 1.817469e-01 2.946097e-01 1.817470e-01 2.946094e-01 7.910792e-01 -4.312810e-01
1.600000e+10 7.878594e-01 -4.344618e-01 1.841514e-01 2.963130e-01 1.841514e-01 2.963127e-01 7.886167e-01 -4.334140e-01
1.605000e+10 7.853793e-01 -4.365780e-01 1.865659e-01 2.979970e-01 1.865660e-01 2.979967e-01 7.861440e-01 -4.355280e-01
1.610000e+10 7.828890e-01 -4.386751e-01 1.889904e-01 2.996617e-01 1.889905e-01 2.996615e-01 7.836610e-01 -4.376230e-01
1.615000e+10 7.803886e-01 -4.407533e-01 1.914248e-01 3.013071e-01 1.914249e-01 3.013069e-01 7.811681e-01 -4.396991e-01
1.620000e+10 7.778783e-01 -4.428125e-01 1.938688e-01 3.029332e-01 1.938689e-01 3.029329e-01 7.786652e-01 -4.417562e-01
1.625000e+10 7.753583e-01 -4.448527e-01 1.963223e-01 3.045399e-01 1.963223e-01 3.045397e-01 7.761526e-01 -4.437944e-01
1.630000e+10 7.728286e-01 -4.468739e-01 1.987851e-01 3.061273e-01 1.987851e-01 3.061271e-01 7.736304e-01 -4.458135e-01
1.635000e+10 7.702894e-01 -4.488761e-01 2.012570e-01 3.076954e-01 2.012571e-01 3.076951e-01 7.710988e-01 -4.478137e-01
1.640000e+10 7.677408e-01 -4.508592e-01 2.037380e-01 3.092441e-01 2.037381e-01 3.092439e-01 7.685578e-01 -4.497948e-01
1.645000e+10 7.651830e-01 -4.528233e-01 2.062278e-01 3.107735e-01 2.062279e-01 3.107732e-01 7.660076e-01 -4.517569e-01
1.650000e+10 7.626162e-01 -4.547683e-01 2.087263e-01 3.122835e-01 2.087264e-01 3.122833e-01 7.634484e-01 -4.537001e-01
1.655000e+10 7.600404e-01 -4.566943e-01 2.112334e-01 3.137742e-01 2.112335e-01 3.137740e-01 7.608803e-01 -4.556242e-01
1.660000e+10 7.574557e-01 -4.586012e-01 2.137488e-01 3.152457e-01 2.137489e-01 3.152454e-01 7.583034e-01 -4.575293e-01
1.665000e+10 7.548625e-01 -4.604891e-01 2.162724e-01 3.166978e-01 2.162725e-01 3.166975e-01 7.557178e-01 -4.594153e-01
1.670000e+10 7.522607e-01 -4.623580e-01 2.188042e-01 3.181306e-01 2.188043e-01 3.181304e-01 7.531238e-01 -4.612824e-01
1.675000e+10 7.496505e-01 -4.642078e-01 2.213438e-01 3.195442e-01 2.213439e-01 3.195439e-01 7.505214e-01 -4.631304e-01
1.680000e+10 7.470320e-01 -4.660386e-01 2.238913e-01 3.209385e-01 2.238914e-01 3.209383e-01 7.479107e-01 -4.649594e-01
1.685000e+10 7.444054e-01 -4.678503e-01 2.264464e-01 3.223136e-01 2.264465e-01 3.223134e-01 7.452919e-01 -4.667695e-01
1.690000e+10 7.417708e-01 -4.696430e-01 2.290090e-01 3.236695e-01 2.290091e-01 3.236693e-01 7.426652e-01 -4.685605e-01
1.695000e+10 7.391283e-01 -4.714167e-01 2.315789e-01 3.250063e-01 2.315791e-01 3.250060e-01 7.400306e-01 -4.703325e-01
1.700000e+10 7.364780e-01 -4.731714e-01 2.341561e-01 3.263239e-01 2.341562e-01 3.263236e-01 7.373883e-01 -4.720855e-01
1.705000e+10 7.338202e-01 -4.749071e-01 2.367404e-01 3.276224e-01 2.367405e-01 3.276221e-01 7.347384e-01 -4.738196e-01
1.710000e+10 7.311548e-01 -4.766237e-01 2.393317e-01 3.289017e-01 2.393318e-01 3.289015e-01 7.320811e-01 -4.755346e-01
1.715000e+10 7.284821e-01 -4.783214e-01 2.419298e-01 3.301621e-01 2.419299e-01 3.301618e-01 7.294164e-01 -4.772308e-01
1.720000e+10 7.258021e-01 -4.800001e-01 2.445346e-01 3.314034e-01 2.445348e-01 3.314032e-01 7.267445e-01 -4.789079e-01
1.725000e+10 7.231150e-01 -4.816598e-01 2.471461e-01 3.326257e-01 2.471462e-01 3.326255e-01 7.240655e-01 -4.805661e-01
1.730000e+10 7.204209e-01 -4.833005e-01 2.497640e-01 3.338291e-01 2.497642e-01 3.338288e-01 7.213795e-01 -4.822054e-01
1.735000e+10 7.177200e-01 -4.849224e-01 2.523883e-01 3.350135e-01 2.523885e-01 3.350133e-01 7.186866e-01 -4.838258e-01
1.740000e+10 7.150122e-01 -4.865252e-01 2.550188e-01 3.361790e-01 2.550190e-01 3.361788e-01 7.159871e-01 -4.854272e-01
1.745000e+10 7.122978e-01 -4.881092e-01 2.576555e-01 3.373257e-01 2.576557e-01 3.373254e-01 7.132808e-01 -4.870098e-01
1.750000e+10 7.095768e-01 -4.896742e-01 2.602983e-01 3.384535e-01 2.602985e-01 3.384533e-01 7.105681e-01 -4.885735e-01
1.755000e+10 7.068495e-01 -4.912203e-01 2.629470e-01 3.395625e-01 2.629472e-01 3.395623e-01 7.078490e-01 -4.901183e-01
1.760000e+10 7.041158e-01 -4.927476e-01 2.656015e-01 3.406527e-01 2.656017e-01 3.406525e-01 7.051236e-01 -4.916442e-01
1.765000e+10 7.013759e-01 -4.942559e-01 2.682618e-01 3.417242e-01 2.682620e-01 3.417239e-01 7.023920e-01 -4.931513e-01
1.770000e+10 6.986299e-01 -4.957454e-01 2.709278e-01 3.427769e-01 2.709280e-01 3.427767e-01 6.996544e-01 -4.946395e-01
1.775000e+10 6.958779e-01 -4.972160e-01 2.735993e-01 3.438110e-01 2.735995e-01 3.438107e-01 6.969108e-01 -4.961089e-01
1.780000e+10 6.931201e-01 -4.986678e-01 2.762762e-01 3.448263e-01 2.762764e-01 3.448260e-01 6.941614e-01 -4.975595e-01
1.785000e+10 6.903565e-01 -5.001008e-01 2.789585e-01 3.458230e-01 2.789588e-01 3.458227e-01 6.914062e-01 -4.989913e-01
1.790000e+10 6.875872e-01 -5.015149e-01 2.816462e-01 3.468010e-01 2.816464e-01 3.468008e-01 6.886454e-01 -5.004043e-01
1.795000e+10 6.848124e-01 -5.029102e-01 2.843390e-01 3.477605e-01 2.843392e-01 3.477602e-01 6.858790e-01 -5.017985e-01
1.800000e+10 6.820321e-01 -5.042867e-01 2.870369e-01 3.487013e-01 2.870372e-01 3.487010e-01 6.831073e-01 -5.031739e-01
1.805000e+10 6.792464e-01 -5.056444e-01 2.897399e-01 3.496235e-01 2.897402e-01 3.496232e-01 6.803302e-01 -5.045305e-01
1.810000e+10 6.764555e-01 -5.069833e-01 2.924478e-01 3.505272e-01 2.924481e-01 3.505269e-01 6.775479e-01 -5.058684e-01
1.815000e+10 6.736595e-01 -5.083034e-01 2.951606e-01 3.514122e-01 2.951609e-01 3.514120e-01 6.747604e-01 -5.071875e-01
1.820000e+10 6.708583e-01 -5.096047e-01 2.978782e-01 3.522787e-01 2.978785e-01 3.522785e-01 6.719680e-01 -5.084879e-01
1.825000e+10 6.680523e-01 -5.108872e-01 3.006005e-01 3.531267e-01 3.006008e-01 3.531264e-01 6.691706e-01 -5.097695e-01
1.830000e+10 6.652414e-01 -5.121510e-01 3.033275e-01 3.539561e-01 3.033277e-01 3.539558e-01 6.663684e-01 -5.110323e-01
1.835000e+10 6.624257e-01 -5.133960e-01 3.060590e-01 3.547669e-01 3.060592e-01 3.547666e-01 6.635615e-01 -5.122765e-01
1.840000e+10 6.596054e-01 -5.146222e-01 3.087949e-01 3.555592e-01 3.087952e-01 3.555589e-01 6.607500e-01 -5.135019e-01
1.845000e+10 6.567806e-01 -5.158297e-01 3.115353e-01 3.563329e-01 3.115356e-01 3.563326e-01 6.579339e-01 -5.147085e-01
1.850000e+10 6.539513e-01 -5.170184e-01 3.142800e-01 3.570880e-01 3.142803e-01 3.570877e-01 6.551134e-01 -5.158964e-01
1.855000e+10 6.511176e-01 -5.181884e-01 3.170289e-01 3.578246e-01 3.170292e-01 3.578243e-01 6.522887e-01 -5.170656e-01
1.860000e+10 6.482797e-01 -5.193395e-01 3.197819e-01 3.585425e-01 3.197822e-01 3.585422e-01 6.494596e-01 -5.182161e-01
1.865000e+10 6.454377e-01 -5.204720e-01 3.225390e-01 3.592419e-01 3.225393e-01 3.592416e-01 6.466265e-01 -5.193478e-01
1.870000e+10 6.425916e-01 -5.215856e-01 3.253001e-01 3.599226e-01 3.253005e-01 3.599223e-01 6.437894e-01 -5.204609e-01
1.875000e+10 6.397415e-01 -5.226805e-01 3.280652e-01 3.605847e-01 3.280655e-01 3.605844e-01 6.409483e-01 -5.215551e-01
1.880000e+10 6.368876e-01 -5.237567e-01 3.308340e-01 3.612282e-01 3.308343e-01 3.612279e-01 6.381034e-01 -5.226307e-01
1.885000e+10 6.340299e-01 -5.248140e-01 3.336065e-01 3.618530e-01 3.336068e-01 3.618527e-01 6.352548e-01 -5.236875e-01
1.890000e+10 6.311686e-01 -5.258526e-01 3.363827e-01 3.624591e-01 3.363830e-01 3.624587e-01 6.324026e-01 -5.247255e-01
1.895000e+10 6.283038e-01 -5.268724e-01 3.391624e-01 3.630464e-01 3.391627e-01 3.630461e-01 6.295469e-01 -5.257448e-01
1.900000e+10 6.254355e-01 -5.278734e-01 3.419455e-01 3.636151e-01 3.419458e-01 3.636147e-01 6.266877e-01 -5.267454e-01
1.905000e+10 6.225639e-01 -5.288557e-01 3.447320e-01 3.641649e-01 3.447323e-01 3.641646e-01 6.238253e-01 -5.277272e-01
1.910000e+10 6.196890e-01 -5.298191e-01 3.475217e-01 3.646960e-01 3.475221e-01 3.646957e-01 6.209596e-01 -5.286903e-01
1.915000e+10 6.168110e-01 -5.307638e-01 3.503146e-01 3.652083e-01 3.503150e-01 3.652079e-01 6.180909e-01 -5.296346e-01
1.920000e+10 6.139300e-01 -5.316897e-01 3.531106e-01 3.657017e-01 3.531109e-01 3.657014e-01 6.152191e-01 -5.305601e-01
1.925000e+10 6.110461e-01 -5.325967e-01 3.559094e-01 3.661763e-01 3.559098e-01 3.661759e-01 6.123445e-01 -5.314669e-01
1.930000e+10 6.081593e-01 -5.334850e-01 3.587111e-01 3.666320e-01 3.587115e-01 3.666316e-01 6.094671e-01 -5.323549e-01
1.935000e+10 6.052699e-01 -5.343544e-01 3.615155e-01 3.670687e-01 3.615159e-01 3.670684e-01 6.065871e-01 -5.332242e-01
1.940000e+10 6.023779e-01 -5.352051e-01 3.643225e-01 3.674865e-01 3.643229e-01 3.674862e-01 6.037045e-01 -5.340746e-01
1.945000e+10 5.994834e-01 -5.360369e-01 3.671320e-01 3.678854e-01 3.671324e-01 3.678850e-01 6.008194e-01 -5.349063e-01
1.950000e+10 5.965866e-01 -5.368498e-01 3.699438e-01 3.682653e-01 3.699442e-01 3.682649e-01 5.979321e-01 -5.357192e-01
1.955000e+10 5.936875e-01 -5.376440e-01 3.727579e-01 3.686261e-01 3.727583e-01 3.686257e-01 5.950425e-01 -5.365132e-01
1.960000e+10 5.907862e-01 -5.384193e-01 3.755741e-01 3.689680e-01 3.755745e-01 3.689676e-01 5.921508e-01 -5.372886e-01
1.965000e+10 5.878830e-01 -5.391758e-01 3.783923e-01 3.692907e-01 3.783927e-01 3.692903e-01 5.892571e-01 -5.380451e-01
1.970000e+10 5.849778e-01 -5.399135e-01 3.812124e-01 3.695944e-01 3.812128e-01 3.695940e-01 5.863615e-01 -5.387828e-01
1.975000e+10 5.820709e-01 -5.406324e-01 3.840342e-01 3.698791e-01 3.840346e-01 3.698787e-01 5.834642e-01 -5.395018e-01
1.980000e+10 5.791622e-01 -5.413324e-01 3.868576e-01 3.701446e-01 3.868580e-01 3.701442e-01 5.805652e-01 -5.402019e-01
1.985000e+10 5.762521e-01 -5.420136e-01 3.896824e-01 3.703910e-01 3.896828e-01 3.703906e-01 5.776647e-01 -5.408833e-01
1.990000e+10 5.733405e-01 -5.426760e-01 3.925086e-01 3.706183e-01 3.925090e-01 3.706179e-01 5.747628e-01 -5.415459e-01
1.995000e+10 5.704275e-01 -5.433196e-01 3.953360e-01 3.708265e-01 3.953364e-01 3.708261e-01 5.718597e-01 -5.421897e-01
2.000000e+10 5.675134e-01 -5.439443e-01 3.981644e-01 3.710156e-01 3.981649e-01 3.710152e-01 5.689553e-01 -5.428148e-01
2.005000e+10 5.645982e-01 -5.445503e-01 4.009938e-01 3.711855e-01 4.009942e-01 3.711851e-01 5.660499e-01 -5.434211e-01
2.010000e+10 5.616820e-01 -5.451374e-01 4.038239e-01 3.713363e-01 4.038243e-01 3.713359e-01 5.631436e-01 -5.440086e-01
2.015000e+10 5.587651e-01 -5.457058e-01 4.066546e-01 3.714680e-01 4.066551e-01 3.714676e-01 5.602365e-01 -5.445774e-01
2.020000e+10 5.558474e-01 -5.462554e-01 4.094859e-01 3.715806e-01 4.094863e-01 3.715802e-01 5.573287e-01 -5.451275e-01
2.025000e+10 5.529291e-01 -5.467863e-01 4.123174e-01 3.716740e-01 4.123179e-01 3.716736e-01 5.544203e-01 -5.456589e-01
2.030000e+10 5.500103e-01 -5.472984e-01 4.151492e-01 3.717484e-01 4.151496e-01 3.717480e-01 5.515115e-01 -5.461716e-01
2.035000e+10 5.470912e-01 -5.477918e-01 4.179810e-01 3.718037e-01 4.179815e-01 3.718033e-01 5.486024e-01 -5.466656e-01
2.040000e+10 5.441719e-01 -5.482665e-01 4.208127e-01 3.718400e-01 4.208132e-01 3.718396e-01 5.456931e-01 -5.471409e-01
2.045000e+10 5.412525e-01 -5.487225e-01 4.236442e-01 3.718573e-01 4.236447e-01 3.718568e-01 5.427837e-01 -5.475976e-01
2.050000e+10 5.383331e-01 -5.491598e-01 4.264753e-01 3.718555e-01 4.264758e-01 3.718551e-01 5.398744e-01 -5.480356e-01
2.055000e+10 5.354138e-01 -5.495785e-01 4.293059e-01 3.718348e-01 4.293063e-01 3.718343e-01 5.369652e-01 -5.484551e-01
2.060000e+10 5.324948e-01 -5.499786e-01 4.321358e-01 3.717951e-01 4.321363e-01 3.717947e-01 5.340563e-01 -5.488560e-01
2.065000e+10 5.295762e-01 -5.503600e-01 4.349649e-01 3.717366e-01 4.349654e-01 3.717361e-01 5.311479e-01 -5.492383e-01
2.070000e+10 5.266581e-01 -5.507229e-01 4.377930e-01 3.716592e-01 4.377935e-01 3.716587e-01 5.282399e-01 -5.496021e-01
2.075000e+10 5.237407e-01 -5.510673e-01 4.406201e-01 3.715629e-01 4.406206e-01 3.715625e-01 5.253326e-01 -5.499474e-01
2.080000e+10 5.208239e-01 -5.513931e-01 4.434460e-01 3.714479e-01 4.434465e-01 3.714475e-01 5.224261e-01 -5.502743e-01
2.085000e+10 5.179081e-01 -5.517005e-01 4.462705e-01 3.713142e-01 4.462710e-01 3.713138e-01 5.195205e-01 -5.505827e-01
2.090000e+10 5.149932e-01 -5.519894e-01 4.490935e-01 3.711619e-01 4.490940e-01 3.711614e-01 5.166159e-01 -5.508727e-01
2.095000e+10 5.120794e-01 -5.522599e-01 4.519149e-01 3.709909e-01 4.519155e-01 3.709904e-01 5.137124e-01 -5.511444e-01
2.100000e+10 5.091668e-01 -5.525121e-01 4.547346e-01 3.708013e-01 4.547351e-01 3.708008e-01 5.108101e-01 -5.513977e-01
2.105000e+10 5.062555e-01 -5.527459e-01 4.575524e-01 3.705932e-01 4.575530e-01 3.705928e-01 5.079092e-01 -5.516328e-01
2.110000e+10 5.033457e-01 -5.529614e-01 4.603682e-01 3.703667e-01 4.603688e-01 3.703663e-01 5.050098e-01 -5.518496e-01
2.115000e+10 5.004375e-01 -5.531586e-01 4.631820e-01 3.701219e-01 4.631825e-01 3.701214e-01 5.021119e-01 -5.520481e-01
2.120000e+10 4.975309e-01 -5.533377e-01 4.659935e-01 3.698587e-01 4.659941e-01 3.698582e-01 4.992157e-01 -5.522285e-01
2.125000e+10 4.946260e-01 -5.534985e-01 4.688026e-01 3.695772e-01 4.688032e-01 3.695767e-01 4.963213e-01 -5.523908e-01
2.130000e+10 4.917231e-01 -5.536412e-01 4.716094e-01 3.692776e-01 4.716100e-01 3.692771e-01 4.934288e-01 -5.525350e-01
2.135000e+10 4.888221e-01 -5.537658e-01 4.744136e-01 3.689598e-01 4.744142e-01 3.689593e-01 4.905383e-01 -5.526611e-01
2.140000e+10 4.859232e-01 -5.538724e-01 4.772151e-01 3.686240e-01 4.772157e-01 3.686235e-01 4.876499e-01 -5.527692e-01
2.145000e+10 4.830265e-01 -5.539609e-01 4.800139e-01 3.682702e-01 4.800145e-01 3.682697e-01 4.847638e-01 -5.528594e-01
2.150000e+10 4.801322e-01 -5.540315e-01 4.828098e-01 3.678985e-01 4.828105e-01 3.678980e-01 4.818800e-01 -5.529316e-01
2.155000e+10 4.772402e-01 -5.540842e-01 4.856028e-01 3.675089e-01 4.856035e-01 3.675084e-01 4.789985e-01 -5.529860e-01
2.160000e+10 4.743507e-01 -5.541190e-01 4.883928e-01 3.671015e-01 4.883935e-01 3.671010e-01 4.761196e-01 -5.530226e-01
2.165000e+10 4.714638e-01 -5.541360e-01 4.911796e-01 3.666765e-01 4.911803e-01 3.666759e-01 4.732434e-01 -5.530413e-01
2.170000e+10 4.685796e-01 -5.541352e-01 4.939633e-01 3.662337e-01 4.939640e-01 3.662332e-01 4.703698e-01 -5.530424e-01
2.175000e+10 4.656982e-01 -5.541166e-01 4.967437e-01 3.657734e-01 4.967444e-01 3.657729e-01 4.674990e-01 -5.530257e-01
2.180000e+10 4.628196e-01 -5.540804e-01 4.995207e-01 3.652956e-01 4.995214e-01 3.652950e-01 4.646312e-01 -5.529915e-01
2.185000e+10 4.599441e-01 -5.540265e-01 5.022942e-01 3.648003e-01 5.022949e-01 3.647997e-01 4.617663e-01 -5.529396e-01
2.190000e+10 4.570716e-01 -5.539550e-01 5.050643e-01 3.642876e-01 5.050650e-01 3.642870e-01 4.589046e-01 -5.528701e-01
2.195000e+10 4.542023e-01 -5.538660e-01 5.078308e-01 3.637575e-01 5.078315e-01 3.637570e-01 4.560460e-01 -5.527832e-01
2.200000e+10 4.513362e-01 -5.537595e-01 5.105936e-01 3.632102e-01 5.105943e-01 3.632096e-01 4.531906e-01 -5.526788e-01
2.205000e+10 4.484734e-01 -5.536354e-01 5.133527e-01 3.626457e-01 5.133535e-01 3.626451e-01 4.503387e-01 -5.525570e-01
2.210000e+10 4.456141e-01 -5.534940e-01 5.161080e-01 3.620640e-01 5.161088e-01 3.620634e-01 4.474901e-01 -5.524178e-01
2.215000e+10 4.427582e-01 -5.533352e-01 5.188595e-01 3.614652e-01 5.188603e-01 3.614645e-01 4.446451e-01 -5.522612e-01
2.220000e+10 4.399060e-01 -5.531590e-01 5.216072e-01 3.608493e-01 5.216079e-01 3.608486e-01 4.418037e-01 -5.520874e-01
2.225000e+10 4.370574e-01 -5.529656e-01 5.243508e-01 3.602163e-01 5.243516e-01 3.602157e-01 4.389660e-01 -5.518963e-01
2.230000e+10 4.342126e-01 -5.527548e-01 5.270904e-01 3.595664e-01 5.270912e-01 3.595658e-01 4.361321e-01 -5.516880e-01
2.235000e+10 4.313716e-01 -5.525269e-01 5.298260e-01 3.588996e-01 5.298268e-01 3.588989e-01 4.333020e-01 -5.514626e-01
2.240000e+10 4.285346e-01 -5.522818e-01 5.325574e-01 3.582158e-01 5.325583e-01 3.582151e-01 4.304759e-01 -5.512200e-01
2.245000e+10 4.257015e-01 -5.520195e-01 5.352847e-01 3.575152e-01 5.352855e-01 3.575145e-01 4.276538e-01 -5.509603e-01
2.250000e+10 4.228725e-01 -5.517402e-01 5.380077e-01 3.567977e-01 5.380085e-01 3.567970e-01 4.248358e-01 -5.506836e-01
2.255000e+10 4.200477e-01 -5.514437e-01 5.407264e-01 3.560635e-01 5.407273e-01 3.560627e-01 4.220220e-01 -5.503898e-01
2.260000e+10 4.172272e-01 -5.511303e-01 5.434408e-01 3.553124e-01 5.434416e-01 3.553116e-01 4.192124e-01 -5.500791e-01
2.265000e+10 4.144109e-01 -5.507998e-01 5.461507e-01 3.545446e-01 5.461516e-01 3.545438e-01 4.164072e-01 -5.497514e-01
2.270000e+10 4.115991e-01 -5.504524e-01 5.488562e-01 3.537600e-01 5.488571e-01 3.537592e-01 4.136064e-01 -5.494068e-01
2.275000e+10 4.087918e-01 -5.500880e-01 5.515572e-01 3.529587e-01 5.515581e-01 3.529579e-01 4.108102e-01 -5.490454e-01
2.280000e+10 4.059890e-01 -5.497067e-01 5.542536e-01 3.521407e-01 5.542545e-01 3.521399e-01 4.080185e-01 -5.486670e-01
2.285000e+10 4.031909e-01 -5.493086e-01 5.569453e-01 3.513060e-01 5.569462e-01 3.513052e-01 4.052315e-01 -5.482719e-01
2.290000e+10 4.003975e-01 -5.488936e-01 5.596324e-01 3.504546e-01 5.596333e-01 3.504538e-01 4.024492e-01 -5.478599e-01
2.295000e+10 3.976089e-01 -5.484618e-01 5.623146e-01 3.495866e-01 5.623155e-01 3.495857e-01 3.996718e-01 -5.474312e-01
2.300000e+10 3.948253e-01 -5.480132e-01 5.649920e-01 3.487018e-01 5.649929e-01 3.487009e-01 3.968993e-01 -5.469858e-01
2.305000e+10 3.920466e-01 -5.475479e-01 5.676645e-01 3.478004e-01 5.676655e-01 3.477995e-01 3.941318e-01 -5.465237e-01
2.310000e+10 3.892730e-01 -5.470658e-01 5.703321e-01 3.468823e-01 5.703330e-01 3.468814e-01 3.913694e-01 -5.460449e-01
2.315000e+10 3.865045e-01 -5.465670e-01 5.729945e-01 3.459476e-01 5.729954e-01 3.459466e-01 3.886122e-01 -5.455494e-01
2.320000e+10 3.837413e-01 -5.460515e-01 5.756519e-01 3.449962e-01 5.756528e-01 3.449952e-01 3.858602e-01 -5.450373e-01
2.325000e+10 3.809834e-01 -5.455194e-01 5.783040e-01 3.440281e-01 5.783049e-01 3.440271e-01 3.831136e-01 -5.445086e-01
2.330000e+10 3.782309e-01 -5.449707e-01 5.809508e-01 3.430433e-01 5.809517e-01 3.430423e-01 3.803724e-01 -5.439634e-01
2.335000e+10 3.754840e-01 -5.444053e-01 5.835922e-01 3.420418e-01 5.835931e-01 3.420408e-01 3.776368e-01 -5.434016e-01
2.340000e+10 3.727426e-01 -5.438234e-01 5.862281e-01 3.410237e-01 5.862290e-01 3.410226e-01 3.749067e-01 -5.428232e-01
2.345000e+10 3.700070e-01 -5.432250e-01 5.888584e-01 3.399888e-01 5.888594e-01 3.399878e-01 3.721824e-01 -5.422284e-01
2.350000e+10 3.672771e-01 -5.426100e-01 5.914831e-01 3.389373e-01 5.914840e-01 3.389362e-01 3.694639e-01 -5.416171e-01
2.355000e+10 3.645531e-01 -5.419785e-01 5.941020e-01 3.378691e-01 5.941029e-01 3.378680e-01 3.667512e-01 -5.409894e-01
2.360000e+10 3.618351e-01 -5.413305e-01 5.967150e-01 3.367841e-01 5.967159e-01 3.367830e-01 3.640446e-01 -5.403453e-01
2.365000e+10 3.591231e-01 -5.406661e-01 5.993220e-01 3.356825e-01 5.993229e-01 3.356814e-01 3.613441e-01 -5.396848e-01
2.370000e+10 3.564174e-01 -5.399853e-01 6.019228e-01 3.345642e-01 6.019237e-01 3.345630e-01 3.586497e-01 -5.390079e-01
2.375000e+10 3.537179e-01 -5.392881e-01 6.045175e-01 3.334291e-01 6.045184e-01 3.334280e-01 3.559617e-01 -5.383147e-01
2.380000e+10 3.510248e-01 -5.385745e-01 6.071058e-01 3.322774e-01 6.071067e-01 3.322763e-01 3.532800e-01 -5.376052e-01
2.385000e+10 3.483381e-01 -5.378446e-01 6.096876e-01 3.311090e-01 6.096885e-01 3.311078e-01 3.506049e-01 -5.368794e-01
2.390000e+10 3.456581e-01 -5.370984e-01 6.122628e-01 3.299239e-01 6.122637e-01 3.299227e-01 3.479363e-01 -5.361374e-01
2.395000e+10 3.429847e-01 -5.363360e-01 6.148313e-01 3.287221e-01 6.148322e-01 3.287209e-01 3.452744e-01 -5.353792e-01
2.400000e+10 3.403182e-01 -5.355573e-01 6.173930e-01 3.275037e-01 6.173938e-01 3.275025e-01 3.426194e-01 -5.346048e-01
2.405000e+10 3.376586e-01 -5.347624e-01 6.199476e-01 3.262687e-01 6.199484e-01 3.262674e-01 3.399713e-01 -5.338143e-01
2.410000e+10 3.350059e-01 -5.339514e-01 6.224951e-01 3.250170e-01 6.224959e-01 3.250158e-01 3.373302e-01 -5.330077e-01
2.415000e+10 3.323604e-01 -5.331242e-01 6.250353e-01 3.237487e-01 6.250361e-01 3.237475e-01 3.346962e-01 -5.321851e-01
2.420000e+10 3.297221e-01 -5.322810e-01 6.275681e-01 3.224639e-01 6.275689e-01 3.224627e-01 3.320695e-01 -5.313464e-01
2.425000e+10 3.270912e-01 -5.314218e-01 6.300933e-01 3.211626e-01 6.300941e-01 3.211613e-01 3.294501e-01 -5.304918e-01
2.430000e+10 3.244677e-01 -5.305466e-01 6.326108e-01 3.198448e-01 6.326117e-01 3.198435e-01 3.268382e-01 -5.296212e-01
2.435000e+10 3.218518e-01 -5.296554e-01 6.351205e-01 3.185105e-01 6.351213e-01 3.185092e-01 3.242339e-01 -5.287348e-01
2.440000e+10 3.192436e-01 -5.287484e-01 6.376222e-01 3.171598e-01 6.376230e-01 3.171585e-01 3.216373e-01 -5.278326e-01
2.445000e+10 3.166432e-01 -5.278255e-01 6.401157e-01 3.157928e-01 6.401165e-01 3.157915e-01 3.190485e-01 -5.269145e-01
2.450000e+10 3.140506e-01 -5.268868e-01 6.426009e-01 3.144095e-01 6.426016e-01 3.144082e-01 3.164676e-01 -5.259808e-01
2.455000e+10 3.114661e-01 -5.259324e-01 6.450776e-01 3.130100e-01 6.450784e-01 3.130087e-01 3.138947e-01 -5.250314e-01
2.460000e+10 3.088898e-01 -5.249623e-01 6.475458e-01 3.115943e-01 6.475465e-01 3.115930e-01 3.113300e-01 -5.240664e-01
2.465000e+10 3.063216e-01 -5.239767e-01 6.500052e-01 3.101626e-01 6.500059e-01 3.101612e-01 3.087735e-01 -5.230858e-01
2.470000e+10 3.037618e-01 -5.229754e-01 6.524557e-01 3.087148e-01 6.524565e-01 3.087134e-01 3.062253e-01 -5.220898e-01
2.475000e+10 3.012105e-01 -5.219587e-01 6.548972e-01 3.072511e-01 6.548979e-01 3.072497e-01 3.036857e-01 -5.210783e-01
2.480000e+10 2.986678e-01 -5.209266e-01 6.573295e-01 3.057716e-01 6.573302e-01 3.057702e-01 3.011546e-01 -5.200515e-01
2.485000e+10 2.961337e-01 -5.198792e-01 6.597525e-01 3.042763e-01 6.597532e-01 3.042749e-01 2.986322e-01 -5.190094e-01
2.490000e+10 2.936085e-01 -5.188164e-01 6.621661e-01 3.027653e-01 6.621667e-01 3.027640e-01 2.961186e-01 -5.179521e-01
2.495000e+10 2.910921e-01 -5.177385e-01 6.645700e-01 3.012389e-01 6.645707e-01 3.012375e-01 2.936139e-01 -5.168797e-01
2.500000e+10 2.885848e-01 -5.166455e-01 6.669642e-01 2.996969e-01 6.669649e-01 2.996956e-01 2.911183e-01 -5.157922e-01
2.505000e+10 2.860865e-01 -5.155374e-01 6.693486e-01 2.981397e-01 6.693492e-01 2.981383e-01 2.886317e-01 -5.146898e-01
2.510000e+10 2.835975e-01 -5.144143e-01 6.717230e-01 2.965672e-01 6.717236e-01 2.965658e-01 2.861544e-01 -5.135724e-01
2.515000e+10 2.811178e-01 -5.132764e-01 6.740872e-01 2.949796e-01 6.740879e-01 2.949782e-01 2.836863e-01 -5.124402e-01
2.520000e+10 2.786474e-01 -5.121237e-01 6.764413e-01 2.933770e-01 6.764419e-01 2.933757e-01 2.812277e-01 -5.112933e-01
2.525000e+10 2.761867e-01 -5.109563e-01 6.787851e-01 2.917596e-01 6.787857e-01 2.917582e-01 2.787786e-01 -5.101317e-01
2.530000e+10 2.737355e-01 -5.097742e-01 6.811184e-01 2.901274e-01 6.811190e-01 2.901261e-01 2.763392e-01 -5.089556e-01
2.535000e+10 2.712940e-01 -5.085776e-01 6.834411e-01 2.884807e-01 6.834417e-01 2.884793e-01 2.739094e-01 -5.077650e-01
2.540000e+10 2.688623e-01 -5.073666e-01 6.857533e-01 2.868194e-01 6.857539e-01 2.868181e-01 2.714894e-01 -5.065601e-01
2.545000e+10 2.664404e-01 -5.061412e-01 6.880547e-01 2.851439e-01 6.880553e-01 2.851425e-01 2.690793e-01 -5.053408e-01
2.550000e+10 2.640286e-01 -5.049015e-01 6.903453e-01 2.834541e-01 6.903459e-01 2.834527e-01 2.666791e-01 -5.041073e-01
2.555000e+10 2.616268e-01 -5.036477e-01 6.926250e-01 2.817502e-01 6.926256e-01 2.817488e-01 2.642890e-01 -5.028598e-01
2.560000e+10 2.592351e-01 -5.023798e-01 6.948938e-01 2.800324e-01 6.948943e-01 2.800311e-01 2.619091e-01 -5.015982e-01
2.565000e+10 2.568536e-01 -5.010980e-01 6.971515e-01 2.783008e-01 6.971520e-01 2.782995e-01 2.595393e-01 -5.003227e-01
2.570000e+10 2.544824e-01 -4.998022e-01 6.993981e-01 2.765556e-01 6.993987e-01 2.765542e-01 2.571799e-01 -4.990334e-01
2.575000e+10 2.521216e-01 -4.984927e-01 7.016336e-01 2.747968e-01 7.016341e-01 2.747955e-01 2.548307e-01 -4.977304e-01
2.580000e+10 2.497712e-01 -4.971695e-01 7.038578e-01 2.730247e-01 7.038584e-01 2.730233e-01 2.524921e-01 -4.964137e-01
2.585000e+10 2.474313e-01 -4.958327e-01 7.060708e-01 2.712392e-01 7.060714e-01 2.712379e-01 2.501639e-01 -4.950835e-01
2.590000e+10 2.451019e-01 -4.944823e-01 7.082726e-01 2.694407e-01 7.082731e-01 2.694393e-01 2.478463e-01 -4.937399e-01
2.595000e+10 2.427832e-01 -4.931186e-01 7.104629e-01 2.676292e-01 7.104635e-01 2.676278e-01 2.455393e-01 -4.923829e-01
2.600000e+10 2.404752e-01 -4.917415e-01 7.126420e-01 2.658048e-01 7.126425e-01 2.658034e-01 2.432430e-01 -4.910126e-01
2.605000e+10 2.381779e-01 -4.903513e-01 7.148096e-01 2.639676e-01 7.148102e-01 2.639662e-01 2.409574e-01 -4.896292e-01
2.610000e+10 2.358914e-01 -4.889479e-01 7.169659e-01 2.621178e-01 7.169664e-01 2.621165e-01 2.386827e-01 -4.882328e-01
2.615000e+10 2.336158e-01 -4.875315e-01 7.191107e-01 2.602555e-01 7.191112e-01 2.602542e-01 2.364188e-01 -4.868234e-01
2.620000e+10 2.313511e-01 -4.861021e-01 7.212441e-01 2.583809e-01 7.212446e-01 2.583795e-01 2.341658e-01 -4.854010e-01
2.625000e+10 2.290973e-01 -4.846599e-01 7.233661e-01 2.564939e-01 7.233666e-01 2.564925e-01 2.319238e-01 -4.839659e-01
2.630000e+10 2.268546e-01 -4.832048e-01 7.254766e-01 2.545947e-01 7.254771e-01 2.545934e-01 2.296927e-01 -4.825181e-01
2.635000e+10 2.246229e-01 -4.817372e-01 7.275757e-01 2.526835e-01 7.275762e-01 2.526821e-01 2.274728e-01 -4.810576e-01
2.640000e+10 2.224022e-01 -4.802569e-01 7.296634e-01 2.507603e-01 7.296639e-01 2.507589e-01 2.252639e-01 -4.795847e-01
2.645000e+10 2.201928e-01 -4.787641e-01 7.317396e-01 2.488251e-01 7.317401e-01 2.488238e-01 2.230662e-01 -4.780992e-01
2.650000e+10 2.179945e-01 -4.772588e-01 7.338044e-01 2.468782e-01 7.338049e-01 2.468768e-01 2.208796e-01 -4.766014e-01
2.655000e+10 2.158074e-01 -4.757412e-01 7.358578e-01 2.449195e-01 7.358583e-01 2.449181e-01 2.187043e-01 -4.750913e-01
2.660000e+10 2.136316e-01 -4.742113e-01 7.378997e-01 2.429491e-01 7.379003e-01 2.429477e-01 2.165403e-01 -4.735690e-01
2.665000e+10 2.114671e-01 -4.726692e-01 7.399303e-01 2.409671e-01 7.399308e-01 2.409657e-01 2.143875e-01 -4.720345e-01
2.670000e+10 2.093140e-01 -4.711149e-01 7.419495e-01 2.389735e-01 7.419500e-01 2.389722e-01 2.122461e-01 -4.704879e-01
2.675000e+10 2.071722e-01 -4.695486e-01 7.439573e-01 2.369685e-01 7.439579e-01 2.369671e-01 2.101161e-01 -4.689294e-01
2.680000e+10 2.050418e-01 -4.679703e-01 7.459538e-01 2.349520e-01 7.459543e-01 2.349506e-01 2.079975e-01 -4.673589e-01
2.685000e+10 2.029229e-01 -4.663800e-01 7.479389e-01 2.329241e-01 7.479394e-01 2.329227e-01 2.058903e-01 -4.657765e-01
2.690000e+10 2.008155e-01 -4.647779e-01 7.499127e-01 2.308847e-01 7.499132e-01 2.308833e-01 2.037947e-01 -4.641823e-01
2.695000e+10 1.987197e-01 -4.631639e-01 7.518751e-01 2.288341e-01 7.518756e-01 2.288327e-01 2.017105e-01 -4.625764e-01
2.700000e+10 1.966353e-01 -4.615382e-01 7.538261e-01 2.267721e-01 7.538266e-01 2.267707e-01 1.996380e-01 -4.609587e-01
2.705000e+10 1.945627e-01 -4.599008e-01 7.557658e-01 2.246988e-01 7.557663e-01 2.246973e-01 1.975771e-01 -4.593295e-01
2.710000e+10 1.925016e-01 -4.582518e-01 7.576942e-01 2.226141e-01 7.576947e-01 2.226127e-01 1.955278e-01 -4.576887e-01
2.715000e+10 1.904523e-01 -4.565911e-01 7.596112e-01 2.205182e-01 7.596116e-01 2.205168e-01 1.934902e-01 -4.560363e-01
2.720000e+10 1.884147e-01 -4.549189e-01 7.615168e-01 2.184110e-01 7.615172e-01 2.184095e-01 1.914644e-01 -4.543725e-01
2.725000e+10 1.863889e-01 -4.532352e-01 7.634110e-01 2.162924e-01 7.634114e-01 2.162910e-01 1.894503e-01 -4.526972e-01
2.730000e+10 1.843749e-01 -4.515401e-01 7.652937e-01 2.141626e-01 7.652942e-01 2.141611e-01 1.874481e-01 -4.510106e-01
2.735000e+10 1.823728e-01 -4.498335e-01 7.671650e-01 2.120214e-01 7.671655e-01 2.120200e-01 1.854578e-01 -4.493126e-01
2.740000e+10 1.803826e-01 -4.481156e-01 7.690248e-01 2.098689e-01 7.690253e-01 2.098675e-01 1.834794e-01 -4.476034e-01
2.745000e+10 1.784045e-01 -4.463864e-01 7.708731e-01 2.077051e-01 7.708735e-01 2.077036e-01 1.815130e-01 -4.458829e-01
2.750000e+10 1.764384e-01 -4.446459e-01 7.727098e-01 2.055299e-01 7.727102e-01 2.055284e-01 1.795586e-01 -4.441512e-01
2.755000e+10 1.744843e-01 -4.428942e-01 7.745348e-01 2.033433e-01 7.745352e-01 2.033418e-01 1.776163e-01 -4.424083e-01
2.760000e+10 1.725425e-01 -4.411313e-01 7.763481e-01 2.011453e-01 7.763485e-01 2.011438e-01 1.756862e-01 -4.406544e-01
2.765000e+10 1.706129e-01 -4.393573e-01 7.781496e-01 1.989359e-01 7.781500e-01 1.989344e-01 1.737684e-01 -4.388894e-01
2.770000e+10 1.686956e-01 -4.375721e-01 7.799392e-01 1.967150e-01 7.799396e-01 1.967135e-01 1.718628e-01 -4.371133e-01
2.775000e+10 1.667906e-01 -4.357759e-01 7.817169e-01 1.944827e-01 7.817172e-01 1.944811e-01 1.699696e-01 -4.353263e-01
2.780000e+10 1.648981e-01 -4.339687e-01 7.834825e-01 1.922389e-01 7.834828e-01 1.922373e-01 1.680888e-01 -4.335283e-01
2.785000e+10 1.630181e-01 -4.321505e-01 7.852359e-01 1.899835e-01 7.852362e-01 1.899820e-01 1.662205e-01 -4.317195e-01
2.790000e+10 1.611507e-01 -4.303214e-01 7.869770e-01 1.877167e-01 7.869773e-01 1.877151e-01 1.643649e-01 -4.298998e-01
2.795000e+10 1.592960e-01 -4.284814e-01 7.887058e-01 1.854383e-01 7.887060e-01 1.854368e-01 1.625218e-01 -4.280693e-01
2.800000e+10 1.574540e-01 -4.266306e-01 7.904220e-01 1.831484e-01 7.904222e-01 1.831469e-01 1.606916e-01 -4.262280e-01
2.805000e+10 1.556249e-01 -4.247690e-01 7.921256e-01 1.808470e-01 7.921258e-01 1.808454e-01 1.588741e-01 -4.243760e-01
2.810000e+10 1.538087e-01 -4.228967e-01 7.938163e-01 1.785341e-01 7.938165e-01 1.785325e-01 1.570696e-01 -4.225134e-01
2.815000e+10 1.520055e-01 -4.210136e-01 7.954941e-01 1.762096e-01 7.954943e-01 1.762080e-01 1.552781e-01 -4.206402e-01
2.820000e+10 1.502155e-01 -4.191200e-01 7.971588e-01 1.738737e-01 7.971590e-01 1.738721e-01 1.534997e-01 -4.187565e-01
2.825000e+10 1.484386e-01 -4.172158e-01 7.988103e-01 1.715262e-01 7.988104e-01 1.715246e-01 1.517345e-01 -4.168622e-01
2.830000e+10 1.466751e-01 -4.153011e-01 8.004483e-01 1.691674e-01 8.004484e-01 1.691658e-01 1.499826e-01 -4.149576e-01
2.835000e+10 1.449250e-01 -4.133760e-01 8.020728e-01 1.667971e-01 8.020728e-01 1.667955e-01 1.482441e-01 -4.130426e-01
2.840000e+10 1.431884e-01 -4.114405e-01 8.036834e-01 1.644155e-01 8.036834e-01 1.644139e-01 1.465191e-01 -4.111173e-01
2.845000e+10 1.414654e-01 -4.094947e-01 8.052802e-01 1.620225e-01 8.052801e-01 1.620209e-01 1.448077e-01 -4.091818e-01
2.850000e+10 1.397561e-01 -4.075387e-01 8.068628e-01 1.596183e-01 8.068627e-01 1.596168e-01 1.431099e-01 -4.072362e-01
2.855000e+10 1.380606e-01 -4.055726e-01 8.084310e-01 1.572030e-01 8.084309e-01 1.572014e-01 1.414260e-01 -4.052805e-01
2.860000e+10 1.363791e-01 -4.035965e-01 8.099848e-01 1.547766e-01 8.099847e-01 1.547751e-01 1.397560e-01 -4.033148e-01
2.865000e+10 1.347116e-01 -4.016103e-01 8.115240e-01 1.523393e-01 8.115238e-01 1.523377e-01 1.381000e-01 -4.013393e-01
2.870000e+10 1.330583e-01 -3.996144e-01 8.130482e-01 1.498910e-01 8.130480e-01 1.498895e-01 1.364581e-01 -3.993540e-01
2.875000e+10 1.314191e-01 -3.976086e-01 8.145574e-01 1.474320e-01 8.145572e-01 1.474305e-01 1.348304e-01 -3.973590e-01
2.880000e+10 1.297944e-01 -3.955932e-01 8.160514e-01 1.449624e-01 8.160511e-01 1.449609e-01 1.332171e-01 -3.953545e-01
2.885000e+10 1.281841e-01 -3.935683e-01 8.175300e-01 1.424824e-01 8.175297e-01 1.424809e-01 1.316182e-01 -3.933404e-01
2.890000e+10 1.265883e-01 -3.915339e-01 8.189930e-01 1.399919e-01 8.189926e-01 1.399905e-01 1.300338e-01 -3.913170e-01
2.895000e+10 1.250072e-01 -3.894902e-01 8.204402e-01 1.374914e-01 8.204398e-01 1.374899e-01 1.284640e-01 -3.892844e-01
2.900000e+10 1.234409e-01 -3.874372e-01 8.218715e-01 1.349808e-01 8.218711e-01 1.349793e-01 1.269090e-01 -3.872426e-01
2.905000e+10 1.218894e-01 -3.853753e-01 8.232867e-01 1.324604e-01 8.232862e-01 1.324590e-01 1.253688e-01 -3.851918e-01
2.910000e+10 1.203528e-01 -3.833043e-01 8.246856e-01 1.299304e-01 8.246851e-01 1.299290e-01 1.238435e-01 -3.831322e-01
2.915000e+10 1.188313e-01 -3.812246e-01 8.260682e-01 1.273909e-01 8.260676e-01 1.273896e-01 1.223332e-01 -3.810638e-01
2.920000e+10 1.173249e-01 -3.791362e-01 8.274342e-01 1.248423e-01 8.274336e-01 1.248410e-01 1.208380e-01 -3.789868e-01
2.925000e+10 1.158338e-01 -3.770392e-01 8.287835e-01 1.222847e-01 8.287829e-01 1.222834e-01 1.193580e-01 -3.769014e-01
2.930000e+10 1.143579e-01 -3.749339e-01 8.301160e-01 1.197183e-01 8.301153e-01 1.197170e-01 1.178932e-01 -3.748077e-01
2.935000e+10 1.128974e-01 -3.728203e-01 8.314316e-01 1.171434e-01 8.314309e-01 1.171421e-01 1.164438e-01 -3.727057e-01
2.940000e+10 1.114523e-01 -3.706987e-01 8.327301e-01 1.145602e-01 8.327294e-01 1.145590e-01 1.150098e-01 -3.705958e-01
2.945000e+10 1.100227e-01 -3.685691e-01 8.340116e-01 1.119689e-01 8.340108e-01 1.119678e-01 1.135912e-01 -3.684781e-01
2.950000e+10 1.086087e-01 -3.664318e-01 8.352758e-01 1.093699e-01 8.352751e-01 1.093688e-01 1.121882e-01 -3.663526e-01
2.955000e+10 1.072104e-01 -3.642869e-01 8.365228e-01 1.067634e-01 8.365221e-01 1.067623e-01 1.108008e-01 -3.642196e-01
2.960000e+10 1.058277e-01 -3.621345e-01 8.377525e-01 1.041496e-01 8.377517e-01 1.041486e-01 1.094290e-01 -3.620792e-01
2.965000e+10 1.044607e-01 -3.599749e-01 8.389649e-01 1.015289e-01 8.389640e-01 1.015279e-01 1.080729e-01 -3.599316e-01
2.970000e+10 1.031095e-01 -3.578082e-01 8.401598e-01 9.890143e-02 8.401590e-01 9.890048e-02 1.067325e-01 -3.577770e-01
2.975000e+10 1.017741e-01 -3.556345e-01 8.413374e-01 9.626752e-02 8.413365e-01 9.626662e-02 1.054079e-01 -3.556155e-01
2.980000e+10 1.004545e-01 -3.534540e-01 8.424976e-01 9.362744e-02 8.424967e-01 9.362658e-02 1.040991e-01 -3.534473e-01
2.985000e+10 9.915080e-02 -3.512670e-01 8.436404e-01 9.098146e-02 8.436395e-01 9.098065e-02 1.028061e-01 -3.512726e-01
2.990000e+10 9.786292e-02 -3.490735e-01 8.447659e-01 8.832984e-02 8.447650e-01 8.832907e-02 1.015289e-01 -3.490914e-01
2.995000e+10 9.659092e-02 -3.468738e-01 8.458741e-01 8.567285e-02 8.458732e-01 8.567213e-02 1.002676e-01 -3.469041e-01
3.000000e+10 9.533479e-02 -3.446679e-01 8.469651e-01 8.301074e-02 8.469641e-01 8.301007e-02 9.902210e-02 -3.447107e-01
