! openEMS extraction of the IHP SG13G2 inductor PCell, geometry p11
! port parasitic de-embedded by cascading a negative series L per port
! L_port = [1.586 1.586] pH (Terman flat-ribbon, from port_information.json)
# Hz S RI R 50
0 0.03792246 0 0.9539373 0 0.9539365 0 0.03793597 0
50000000 0.03808020701 0.01183588804 0.953771933 -0.01256599843 0.953771133 -0.01256595844 0.03809358704 0.01183314817
100000000 0.03855319894 0.02366109349 0.9532760312 -0.02512039425 0.9532752312 -0.02512032427 0.03856619905 0.02365561374
150000000 0.03934072847 0.03546495363 0.9524504919 -0.03765161472 0.9524496919 -0.03765151474 0.03935309872 0.03545676397
200000000 0.04044165007 0.04723683545 0.9512965107 -0.05014815684 0.9512958107 -0.05014802687 0.04045314051 0.04722598587
250000000 0.04185431995 0.05896622559 0.9498160812 -0.0625985972 0.9498152812 -0.06259843723 0.04186468062 0.05895276605
300000000 0.04357665602 0.07064267013 0.9480113957 -0.07499163188 0.9480105957 -0.07499144193 0.04358564697 0.07062667058
350000000 0.04560612785 0.08225585452 0.9458854445 -0.08731608632 0.9458846445 -0.08731586637 0.04561350912 0.08223741491
400000000 0.04793975662 0.09379562345 0.9434414166 -0.09956099519 0.9434407165 -0.09956075524 0.04794529824 0.09377482372
450000000 0.05057414504 0.1052519507 0.9406833991 -0.1117155523 0.940682699 -0.1117152523 0.05057762703 0.1052289508
500000000 0.05350546727 0.1166150992 0.9376154779 -0.1237692004 0.9376147779 -0.1237689005 0.05350666966 0.116589899
550000000 0.05672950885 0.1278754005 0.9342425375 -0.1357117013 0.9342418375 -0.1357114014 0.05672821164 0.1278483
600000000 0.06024162662 0.1390235754 0.9305696612 -0.1475328756 0.9305690611 -0.1475325757 0.06023763981 0.1389945745
650000000 0.06403682856 0.1500504431 0.9266026308 -0.1592231425 0.9266020308 -0.1592227426 0.06402995214 0.1500197416
700000000 0.06810976377 0.1609471216 0.9223474274 -0.1707729201 0.9223468273 -0.1707725202 0.06809982774 0.1609149196
750000000 0.0724547323 0.1717052275 0.9178103308 -0.182173225 0.9178097308 -0.1821728251 0.07244154661 0.1716717249
800000000 0.07706568505 0.1823164761 0.9129982203 -0.1934153724 0.9129976202 -0.1934149724 0.07704909968 0.1822817727
850000000 0.08193630373 0.192772781 0.9079180741 -0.2044908758 0.907917574 -0.2044904759 0.08191615861 0.1927371767
900000000 0.0870599506 0.2030667543 0.9025773699 -0.2153918476 0.9025768698 -0.2153913477 0.08703611569 0.203030349
950000000 0.09242974846 0.2131911066 0.8969837849 -0.2261105983 0.8969833848 -0.2261101983 0.0924020937 0.2131541004
1000000000 0.09803854052 0.2231388471 0.8911451961 -0.2366401369 0.891144796 -0.236639737 0.09800695584 0.2231014398
1050000000 0.1038789503 0.2329034832 0.8850698798 -0.246973671 0.8850695797 -0.2469731711 0.1038433556 0.2328659747
1100000000 0.1099435213 0.2424789209 0.8787662124 -0.2571047065 0.8787659124 -0.2571043066 0.1099037265 0.2424415112
1150000000 0.1162242674 0.2518593645 0.8722427704 -0.2670276479 0.8722424703 -0.2670271479 0.1161803723 0.2518222535
1200000000 0.1227135121 0.2610394169 0.86550823 -0.2767367978 0.8655079299 -0.2767362979 0.1226653167 0.2610027045
1250000000 0.1294030788 0.2700139795 0.8585714678 -0.2862272579 0.8585712677 -0.2862268579 0.1293505831 0.2699780657
1300000000 0.136284891 0.2787784521 0.8514415606 -0.2954945278 0.8514413605 -0.2954940279 0.1362279947 0.2787435369
1350000000 0.1433505712 0.2873287334 0.8441274855 -0.3045343063 0.8441272854 -0.3045339063 0.1432892742 0.2872949166
1400000000 0.1505917419 0.2956608203 0.8366384202 -0.3133430903 0.8366382201 -0.3133426904 0.1505261442 0.2956285021
1450000000 0.1580002251 0.3037713088 0.8289834428 -0.3219175759 0.8289832427 -0.3219171759 0.1579301264 0.3037405891
1500000000 0.1655673419 0.3116570935 0.8211717321 -0.3302549575 0.821171632 -0.3302545575 0.1654929421 0.3116282722
1550000000 0.1732847128 0.3193155677 0.8132124674 -0.3383528286 0.8132123673 -0.3383524286 0.1732060118 0.319288845
1600000000 0.1811440577 0.3267443239 0.8051148291 -0.3462092816 0.805114729 -0.3462088816 0.1810609554 0.3267197997
1650000000 0.1891367956 0.3339414533 0.7968877981 -0.3538226077 0.796887698 -0.3538223077 0.1890493918 0.3339194276
1700000000 0.1972545446 0.3409052463 0.7885403561 -0.3611917974 0.788540356 -0.3611914974 0.1971629392 0.3408860192
1750000000 0.205489022 0.3476346924 0.7800813861 -0.3683160401 0.780081486 -0.36831564 0.2053932149 0.3476182639
1800000000 0.213831944 0.3541286802 0.7715197716 -0.3751948244 0.7715197716 -0.3751945244 0.213732135 0.3541154504
1850000000 0.2222752261 0.3603866977 0.7628640974 -0.3818282384 0.7628640973 -0.3818279384 0.2221714151 0.3603767667
1900000000 0.2308108825 0.3664086324 0.754122849 -0.3882165695 0.7541228489 -0.3882162695 0.2307031694 0.3664022002
1950000000 0.2394307266 0.3721944709 0.7453043131 -0.3943604044 0.745304413 -0.3943601043 0.2393192113 0.3721916375
2000000000 0.2481271708 0.3777445996 0.7364167773 -0.4002607294 0.7364168772 -0.4002605293 0.2480120532 0.3777454652
2050000000 0.2568925264 0.3830596044 0.7274681303 -0.4059188304 0.7274682303 -0.4059186304 0.2567738063 0.3830645691
2100000000 0.2657193036 0.3881405709 0.7184661619 -0.4113362931 0.7184662618 -0.4113360931 0.265597081 0.3881496349
2150000000 0.2746000118 0.3929886845 0.7094184626 -0.4165149028 0.7094186626 -0.4165147027 0.2744744865 0.3930018477
2200000000 0.2835276592 0.3976053302 0.7003324242 -0.4214567445 0.7003326242 -0.4214565444 0.2833989312 0.3976228929
2250000000 0.2924952532 0.4019921932 0.6912151394 -0.4261641034 0.6912153394 -0.4261640034 0.2923634224 0.4020142554
2300000000 0.3014958001 0.4061512584 0.6820735018 -0.4306396645 0.6820737018 -0.4306394644 0.3013610665 0.4061780203
2350000000 0.3105229054 0.4100847109 0.672914106 -0.4348860126 0.672914306 -0.4348859126 0.3103853688 0.4101160725
2400000000 0.3195700735 0.4137947356 0.6637434474 -0.438906133 0.6637436474 -0.4389060329 0.3194299339 0.4138309972
2450000000 0.3286312081 0.4172839177 0.6545677225 -0.4427032106 0.6545679225 -0.4427031105 0.3284885655 0.4173250794
2500000000 0.3377002119 0.4205549427 0.6453927284 -0.4462804309 0.6453929284 -0.4462803308 0.3375551663 0.4206011045
2550000000 0.3467712869 0.4236106959 0.6362243632 -0.4496412793 0.6362244632 -0.4496411792 0.3466241382 0.4236618581
2600000000 0.3558389343 0.4264540633 0.6270677256 -0.4527891417 0.6270679257 -0.4527891416 0.3556897825 0.4265104259
2650000000 0.3648978545 0.4290882308 0.6179283153 -0.455727904 0.6179285153 -0.455727904 0.3647467997 0.429149694
2700000000 0.3739428474 0.4315164848 0.6088108324 -0.4584611527 0.6088110325 -0.4584611527 0.3737899895 0.4315830488
2750000000 0.382968912 0.4337419121 0.5997201779 -0.4609926744 0.5997203779 -0.4609926744 0.382814551 0.433813777
2800000000 0.3919715468 0.4357681998 0.5906605532 -0.4633264564 0.5906607532 -0.4633264563 0.3918156827 0.4358453657
2850000000 0.4009461496 0.4375987353 0.5816363605 -0.4654664859 0.5816365606 -0.4654664858 0.4007889825 0.4376812023
2900000000 0.4098883179 0.4392371065 0.5726515024 -0.4674165508 0.5726517025 -0.4674166508 0.4097300477 0.4393248748
2950000000 0.4187942484 0.4406870019 0.563709682 -0.4691809396 0.5637098821 -0.4691810396 0.4186348753 0.4407800715
3000000000 0.4276598377 0.44195211 0.5548145031 -0.470763541 0.5548147032 -0.4707636409 0.4274995617 0.4420504812
3050000000 0.4364814816 0.4430361201 0.5459692695 -0.472168344 0.5459694696 -0.4721684439 0.4363205027 0.4431397929
3100000000 0.4452557757 0.443942822 0.5371769857 -0.4733995385 0.5371771858 -0.4733997384 0.445094194 0.4440517966
3150000000 0.4539794154 0.4446759057 0.5284406565 -0.4744612144 0.5284407565 -0.4744613144 0.4538173309 0.4447901821
3200000000 0.4626492954 0.4452392618 0.5197627868 -0.4753571624 0.5197629869 -0.4753572623 0.4624869084 0.4453587401
3250000000 0.4712626105 0.4456366813 0.5111460823 -0.4760915735 0.5111462823 -0.4760916734 0.4710999208 0.4457614616
3300000000 0.479816555 0.4458719558 0.5025927483 -0.4766682391 0.5025929484 -0.4766684391 0.4796536628 0.4460018382
3350000000 0.4883085231 0.4459487771 0.4941048908 -0.4770913512 0.4941050909 -0.4770914512 0.4881456284 0.4460838617
3400000000 0.4967362087 0.4458710377 0.4856846158 -0.4773645022 0.4856848159 -0.4773646022 0.4965733117 0.4460112245
3450000000 0.5050974057 0.4456424304 0.4773336295 -0.4774915849 0.4773338297 -0.4774917849 0.5049347064 0.4457877196
3500000000 0.5133901078 0.4452665485 0.4690536383 -0.4774764926 0.4690538384 -0.4774766926 0.5132276063 0.4454169401
3550000000 0.5216123085 0.4447472857 0.4608461485 -0.477322819 0.4608462486 -0.477323019 0.5214502049 0.4449026798
3600000000 0.5297623012 0.4440881361 0.4527124668 -0.4770342581 0.4527125668 -0.4770343581 0.5296005956 0.4442485327
3650000000 0.5378384794 0.4432927943 0.4446538996 -0.4766142044 0.4446540997 -0.4766144044 0.5376771719 0.4434579933
3700000000 0.5458392363 0.442364755 0.4366716539 -0.476066453 0.436671754 -0.476066653 0.545678627 0.4425348568
3750000000 0.5537633654 0.4413075137 0.428766536 -0.475394199 0.4287666361 -0.475394399 0.5536033543 0.4414824181
3800000000 0.5616095599 0.440124566 0.420939653 -0.4746009381 0.4209397531 -0.4746011382 0.5614502472 0.4403041731
3850000000 0.5693767131 0.4388192079 0.4131916113 -0.4736897663 0.4131918115 -0.4736899663 0.5692180988 0.4390035176
3900000000 0.5770638183 0.4373948358 0.4055233178 -0.47266408 0.4055234179 -0.4726642801 0.5769060025 0.4375838482
3950000000 0.5846698687 0.4358548464 0.3979352792 -0.4715268759 0.3979353793 -0.4715270759 0.5845129516 0.4360484615
4000000000 0.5921941578 0.4342022366 0.3904280021 -0.4702812509 0.3904282022 -0.470281551 0.5920381394 0.4344004545
4050000000 0.599635979 0.4324404039 0.383002093 -0.4689302025 0.3830021931 -0.4689304025 0.5994808594 0.4326430245
4100000000 0.6069946258 0.4305722458 0.3756577585 -0.4674765282 0.3756579587 -0.4674768282 0.6068405051 0.4307792692
4150000000 0.6142695916 0.4286007602 0.3683955052 -0.4659231258 0.3683956053 -0.4659234259 0.6141164699 0.4288122864
4200000000 0.6214603701 0.4265291454 0.3612155394 -0.4642727937 0.3612156395 -0.4642729938 0.6213083474 0.4267449744
4250000000 0.628566655 0.4243600998 0.3541179674 -0.4625280303 0.3541180675 -0.4625283304 0.6284157315 0.4245802315
4300000000 0.63558804 0.4220964221 0.3471031955 -0.4606916341 0.3471032956 -0.4606919342 0.6354382157 0.4223209565
4350000000 0.6425243189 0.4197411112 0.3401711298 -0.4587660043 0.3401712299 -0.4587663044 0.6423755939 0.4199698483
4400000000 0.6493752859 0.4172966662 0.3333218764 -0.4567536399 0.3333219765 -0.4567539399 0.6492276603 0.4175296061
4450000000 0.6561407348 0.4147657866 0.3265556412 -0.4546569402 0.3265557414 -0.4546572403 0.6559943086 0.4150028292
4500000000 0.6628205598 0.4121510719 0.3198723302 -0.452478205 0.3198724303 -0.452478505 0.6626753332 0.4123923172
4550000000 0.6694148552 0.409455122 0.313271949 -0.4502198339 0.3132720492 -0.450220134 0.6692707282 0.4097003699
4600000000 0.6759234153 0.4066802368 0.3067545034 -0.4478839271 0.3067546035 -0.4478843272 0.675780588 0.4069295873
4650000000 0.6823465348 0.4038288165 0.3003197987 -0.4454727846 0.3003198988 -0.4454730847 0.6822048071 0.4040822697
4700000000 0.6886840079 0.4009033614 0.2939679405 -0.4429883068 0.2939680407 -0.4429886069 0.6885435801 0.4011608171
4750000000 0.6949362296 0.3979060721 0.2876986341 -0.4404326942 0.2876987342 -0.4404330943 0.6947969017 0.3981674304
4800000000 0.7011030946 0.3948391492 0.2815119846 -0.4378079475 0.2815119848 -0.4378083476 0.7009650666 0.39510451
4850000000 0.7071849979 0.3917046936 0.2754075971 -0.4351160675 0.2754075972 -0.4351163676 0.7070481699 0.3919740569
4900000000 0.7131820345 0.3885050062 0.2693854766 -0.4323588552 0.2693854767 -0.4323591554 0.7130464066 0.3887782719
4950000000 0.7190943996 0.3852419881 0.2634454279 -0.4295382117 0.263445428 -0.4295385119 0.7189600717 0.3855192563
5000000000 0.7249224885 0.3819178406 0.2575872557 -0.4266560383 0.2575872558 -0.4266563385 0.7247893608 0.3821989112
5050000000 0.7306664965 0.3785343651 0.2518107645 -0.4237140364 0.2518107646 -0.4237144365 0.730534669 0.378819338
5100000000 0.7363267192 0.3750935631 0.246115859 -0.4207141073 0.2461158591 -0.4207145075 0.736196092 0.3753824383
5150000000 0.7419034523 0.3715973361 0.2405021434 -0.4176579529 0.2405021435 -0.417658253 0.7417741254 0.3718901136
5200000000 0.7473970915 0.3680473859 0.2349696219 -0.4145470746 0.234969622 -0.4145474747 0.747269065 0.3683440656
5250000000 0.7528080328 0.3644456144 0.2295178987 -0.4113833745 0.2295177987 -0.4113837747 0.7526812067 0.3647461962
5300000000 0.7581365721 0.3607938234 0.2241467776 -0.4081683544 0.2241466777 -0.4081687546 0.7580110465 0.3610983074
5350000000 0.7633830055 0.357093615 0.2188559627 -0.4049037164 0.2188559628 -0.4049041166 0.7632588805 0.3574020011
5400000000 0.7685479295 0.3533466913 0.2136453575 -0.4015909626 0.2136453576 -0.4015913628 0.768425105 0.3536589795
5450000000 0.7736316403 0.3495547544 0.2085145658 -0.3982316952 0.2085145659 -0.3982319953 0.7735101164 0.3498709447
5500000000 0.7786346345 0.3457193068 0.2034633909 -0.3948274164 0.203463391 -0.3948277165 0.7785144113 0.346039399
5550000000 0.7835572087 0.3418419507 0.1984915363 -0.3913796286 0.1984914364 -0.3913800288 0.7834382861 0.3421659448
5600000000 0.7883999596 0.3379241885 0.1935987052 -0.3878899343 0.1935986053 -0.3878902344 0.7882823378 0.3382520845
5650000000 0.7931631842 0.3339675228 0.1887845006 -0.3843596358 0.1887844007 -0.384359936 0.7930469632 0.3342993206
5700000000 0.7978474795 0.3299734561 0.1840487257 -0.3807903359 0.1840486257 -0.3807906361 0.7977326593 0.3303092557
5750000000 0.8024532426 0.3259433911 0.1793909831 -0.3771833371 0.1793908831 -0.3771836372 0.8023398233 0.3262830923
5800000000 0.8069809707 0.3218787303 0.1748110757 -0.373540142 0.1748109757 -0.3735404422 0.8068689523 0.3222224332
5850000000 0.8114311612 0.3177808765 0.170308506 -0.3698620534 0.1703084061 -0.3698624536 0.8113205438 0.3181285811
5900000000 0.8158042118 0.3136511325 0.1658828766 -0.3661505741 0.1658827767 -0.3661508742 0.8156950953 0.3140028387
5950000000 0.8201008198 0.3094909011 0.1615339899 -0.3624070068 0.1615338899 -0.3624073069 0.8199931045 0.3098465087
6000000000 0.8243212832 0.3053013851 0.157261448 -0.3586326543 0.157261248 -0.3586329544 0.8242151689 0.3056609942
6050000000 0.8284661998 0.3010837874 0.1530646531 -0.3548288195 0.1530644531 -0.3548291197 0.8283616867 0.3014474979
6100000000 0.8325361677 0.2968395109 0.1489433071 -0.3509968054 0.1489432072 -0.3509972055 0.8324331556 0.2972072226
6150000000 0.8365316848 0.2925697585 0.1448971121 -0.3471380148 0.1448969121 -0.3471383149 0.8364302739 0.2929414715
6200000000 0.8404532494 0.2882755331 0.1409254697 -0.3432535506 0.1409252697 -0.3432539508 0.8403533397 0.2886513473
6250000000 0.84430136 0.2839581377 0.1370278815 -0.3393448158 0.1370276815 -0.339345116 0.8442031516 0.284337953
6300000000 0.8480766148 0.2796187753 0.1332040492 -0.3354129134 0.1332038491 -0.3354132136 0.8479801077 0.2800025917
6350000000 0.8517796126 0.2752583488 0.129453374 -0.3314591463 0.129453174 -0.3314594465 0.8516848068 0.2756463662
6400000000 0.855410852 0.2708781612 0.1257753574 -0.3274846176 0.1257751574 -0.3274849177 0.8553178476 0.2712701796
6450000000 0.8589710319 0.2664792156 0.1221696005 -0.32349053 0.1221694005 -0.3234908302 0.8588796288 0.2668753348
6500000000 0.8624604511 0.2620625149 0.1186354044 -0.3194780868 0.1186352044 -0.3194783869 0.8623709494 0.2624627349
6550000000 0.8658800087 0.257629162 0.1151723701 -0.3154482907 0.1151721701 -0.3154485908 0.8657923084 0.2580334827
6600000000 0.8692300037 0.2531800599 0.1117798984 -0.3114023447 0.1117796984 -0.3114026448 0.8691442049 0.2535884812
6650000000 0.8725112354 0.2487163116 0.1084574902 -0.3073413517 0.1084572902 -0.3073416519 0.8724272381 0.2491287334
6700000000 0.8757242033 0.24423872 0.105204446 -0.3032663148 0.1052041459 -0.3032665149 0.8756422074 0.2446553423
6750000000 0.8788695066 0.2397483879 0.1020201664 -0.2991782367 0.1020199664 -0.2991785369 0.8787894123 0.2401690106
6800000000 0.881947745 0.2352460184 0.09890415195 -0.2950782204 0.09890392193 -0.2950785205 0.8818696521 0.2356708414
6850000000 0.884959518 0.2307328142 0.09585574299 -0.2909672687 0.09585550295 -0.2909674688 0.8848835267 0.2311617375
6900000000 0.8879055254 0.2262093782 0.09287429976 -0.2868461844 0.09287405973 -0.2868464845 0.8878315356 0.2266424016
6950000000 0.890786267 0.2216766131 0.0899592025 -0.2827161703 0.08995896245 -0.2827163704 0.8907143788 0.2221137366
7000000000 0.8936023426 0.2171354218 0.0871097913 -0.2785779291 0.08710955126 -0.2785781292 0.893532656 0.2175766452
7050000000 0.8963545523 0.212586607 0.08432542616 -0.2744324637 0.08432518612 -0.2744326638 0.8962870673 0.2130319303
7100000000 0.8990432962 0.2080308714 0.08160542708 -0.2702805765 0.08160518704 -0.2702807766 0.8989780127 0.2084802945
7150000000 0.9016693743 0.2034690176 0.07894912387 -0.2661231704 0.07894888382 -0.2661233705 0.9016062924 0.2039225404
7200000000 0.9042332869 0.1989018483 0.07635584635 -0.2619610479 0.07635560631 -0.261961248 0.9041725066 0.1993594707
7250000000 0.9067357342 0.1943300661 0.07382491422 -0.2577950116 0.07382466418 -0.2577952117 0.9066772556 0.1947916879
7300000000 0.9091772166 0.1897543734 0.07135561716 -0.2536258641 0.07135537711 -0.2536259641 0.9091212396 0.1902200947
7350000000 0.9115586347 0.1851753727 0.06894728468 -0.2494542076 0.06894703464 -0.2494544077 0.9115049593 0.1856450933
7400000000 0.9138802887 0.1805937665 0.06659920637 -0.2452808447 0.06659896634 -0.2452810448 0.9138291149 0.1810675864
7450000000 0.9161430794 0.1760102573 0.06431069165 -0.2411064778 0.06431044161 -0.2411066779 0.9160943072 0.1764881762
7500000000 0.9183475073 0.1714254472 0.06208102992 -0.2369318093 0.06208078987 -0.2369319093 0.9183011366 0.1719073652
7550000000 0.9204941731 0.1668399387 0.05990953051 -0.2327573413 0.05990929047 -0.2327575414 0.9204503039 0.1673258556
7600000000 0.9225836774 0.162254334 0.05779548274 -0.2285838762 0.05779524269 -0.2285839762 0.9225424098 0.1627442497
7650000000 0.9246167212 0.1576691352 0.05573820581 -0.2244118161 0.05573796576 -0.2244119161 0.9245780551 0.1581630497
7700000000 0.9265940052 0.1530849446 0.05373697888 -0.2202417631 0.05373674885 -0.2202419632 0.9265579406 0.1535828577
7750000000 0.9285159302 0.1485022642 0.05179113119 -0.2160744194 0.05179089114 -0.2160745195 0.9284824671 0.1490040758
7800000000 0.9303832972 0.1439215961 0.04989995175 -0.2119100871 0.0498997217 -0.2119101871 0.9303524355 0.1444274061
7850000000 0.9321966071 0.1393435422 0.04806276965 -0.207749368 0.04806253961 -0.207749468 0.9321684469 0.1398532506
7900000000 0.933956461 0.1347684046 0.04627890391 -0.2035927641 0.04627867387 -0.2035928642 0.9339311022 0.1352821112
7950000000 0.9356635598 0.1301967851 0.0445476635 -0.1994405774 0.04454744346 -0.1994406774 0.9356409023 0.1307143897
8000000000 0.9373184046 0.1256289855 0.04286840739 -0.1952934096 0.04286818736 -0.1952935096 0.9372984485 0.1261504882
8050000000 0.9389215966 0.1210656077 0.04124045448 -0.1911514626 0.04124023445 -0.1911515626 0.9389044417 0.1215910083
8100000000 0.9404738367 0.1165069535 0.03966317364 -0.1870153381 0.03966295361 -0.1870154382 0.9404594832 0.1170362519
8150000000 0.9419755263 0.1119534244 0.03813590377 -0.1828852378 0.03813569374 -0.1828853379 0.9419639739 0.1124865205
8200000000 0.9434272664 0.1074054223 0.03665802369 -0.1787615634 0.03665781366 -0.1787616635 0.9434186152 0.107942416
8250000000 0.9448297583 0.1028632486 0.03522891215 -0.1746446165 0.03522870214 -0.1746448166 0.9448240083 0.1034041398
8300000000 0.9461835032 0.09832735503 0.033847958 -0.1705347986 0.03384774798 -0.1705348987 0.9461805543 0.09887204359
8350000000 0.9474890024 0.09379802302 0.03251454995 -0.1664323113 0.03251433993 -0.1664324114 0.9474890545 0.09434653888
8400000000 0.9487468571 0.08927559404 0.03122810676 -0.162337356 0.03122789674 -0.1623374561 0.9487498101 0.08982792709
8450000000 0.9499575685 0.08476036957 0.02998804715 -0.1582503342 0.02998783713 -0.1582504343 0.9499634225 0.0853164997
8500000000 0.9511216382 0.08025264097 0.02879379981 -0.1541714473 0.02879359979 -0.1541715473 0.951130493 0.08081257809
8550000000 0.9522396672 0.07575271962 0.02764483343 -0.1501009965 0.02764463341 -0.1501010966 0.9522515229 0.07631644361
8600000000 0.9533121571 0.07126085676 0.02654057665 -0.1460389833 0.02654038663 -0.1460390833 0.9533270135 0.07182835753
8650000000 0.9543395091 0.0667773337 0.02548052815 -0.1419858088 0.02548032813 -0.1419859089 0.9543574662 0.06734861115
8700000000 0.9553224246 0.06230241168 0.02446415654 -0.1379416744 0.02446396653 -0.1379417744 0.9553433824 0.0628774357
8750000000 0.9562612051 0.05783631183 0.02349096046 -0.1339065811 0.02349077045 -0.1339066811 0.9562851634 0.05841510232
8800000000 0.9571563518 0.05337928534 0.0225604585 -0.1298809302 0.02256026849 -0.1298810302 0.9571835107 0.05396182221
8850000000 0.9580084663 0.0489315633 0.02167215926 -0.1258647227 0.02167197925 -0.1258648227 0.9580387255 0.04951784644
8900000000 0.9588179499 0.04449335681 0.02082561133 -0.1218582597 0.02082543132 -0.1218583597 0.9588513095 0.04508337611
8950000000 0.9595852041 0.04006487686 0.02002036328 -0.1178615423 0.02002017327 -0.1178616423 0.959621664 0.04065862223
9000000000 0.9603107303 0.03564633448 0.01925595365 -0.1138748715 0.01925577365 -0.1138749715 0.9603503904 0.03624380582
9050000000 0.96099503 0.03123791065 0.01853198101 -0.1098983482 0.01853180101 -0.1098984482 0.9610377901 0.03183910785
9100000000 0.9616384046 0.02683981624 0.01784801389 -0.1059319733 0.01784783389 -0.1059320733 0.9616843648 0.02744472921
9150000000 0.9622413556 0.02245221219 0.01720366083 -0.1019760478 0.01720347083 -0.1019761478 0.9622905157 0.02306085083
9200000000 0.9628042845 0.01807529935 0.01659851034 -0.09803061251 0.01659833034 -0.09803071252 0.9628566445 0.01868764356
9250000000 0.9633275927 0.01370922854 0.01603219092 -0.09409582826 0.01603201092 -0.09409593828 0.9633832525 0.01432528822
9300000000 0.9638116818 0.009354183567 0.01550434109 -0.09017181586 0.0155041611 -0.09017192587 0.9638706413 0.009973948619
9350000000 0.9642569533 0.005010319179 0.01501457934 -0.08625869606 0.01501439935 -0.08625880607 0.9643192124 0.005633791504
9400000000 0.9646638087 0.0006777971099 0.01456257416 -0.08235659958 0.01456239416 -0.0823567096 0.9647293673 0.001304974609
9450000000 0.9650326495 -0.003643228947 0.01414797401 -0.07846562714 0.01414779402 -0.07846573715 0.9651015076 -0.003012346372
9500000000 0.9653637772 -0.007952607329 0.01377043737 -0.07458591938 0.01377025738 -0.07458602939 0.9654360346 -0.007318020771
9550000000 0.9656575934 -0.01225019141 0.0134296527 -0.07071758694 0.01342947272 -0.07071769695 0.96573325 -0.01161190096
9600000000 0.9659144996 -0.01653583757 0.01312529847 -0.06686076042 0.01312511848 -0.06686087043 0.9659934554 -0.01589384235
9650000000 0.9661347974 -0.02080939627 0.01285707311 -0.06301555039 0.01285689313 -0.06301566039 0.9662171521 -0.02016369636
9700000000 0.9663188883 -0.02507072696 0.01262465507 -0.05918208737 0.01262447508 -0.05918219738 0.9664046419 -0.02442133245
9750000000 0.9664669738 -0.02931970914 0.01242776279 -0.05536049187 0.0124275828 -0.05536060188 0.9665562263 -0.02866660013
9800000000 0.9665795556 -0.03355619234 0.01226610469 -0.05155090436 0.01226592471 -0.05155101436 0.9666723068 -0.03289937892
9850000000 0.9666568352 -0.03778003611 0.01213939921 -0.04775343527 0.01213920923 -0.04775354528 0.966753085 -0.03711952839
9900000000 0.9666992142 -0.04199113006 0.01204735476 -0.04396822501 0.01204716478 -0.04396833502 0.9667990624 -0.04132690811
9950000000 0.9667070941 -0.04618933379 0.01198969976 -0.04019540396 0.01198950978 -0.04019551396 0.9668104407 -0.04552140772
1e+10 0.9666805766 -0.05037450697 0.01196616262 -0.03643510244 0.01196598265 -0.03643521244 0.9667875214 -0.04970287687
1.005e+10 0.9666201632 -0.05454653929 0.01197648175 -0.03268746077 0.01197629178 -0.03268757077 0.9667307061 -0.05387120525
1.01e+10 0.9665260556 -0.05870530047 0.01202038556 -0.02895260922 0.01202019559 -0.02895271922 0.9666401965 -0.05802625258
1.015e+10 0.9663985552 -0.06285065025 0.01209761245 -0.02523069804 0.01209742248 -0.02523080804 0.966516394 -0.0621679086
1.02e+10 0.9662380638 -0.06698248842 0.01220789082 -0.02152186743 0.01220771085 -0.02152196743 0.9663596003 -0.0662960331
1.025e+10 0.9660447829 -0.0711006748 0.01235097907 -0.01782624757 0.0123507991 -0.01782635756 0.966170017 -0.0704105159
1.03e+10 0.965819014 -0.07520508923 0.01252661559 -0.0141439986 0.01252643563 -0.01414409859 0.9659479456 -0.07451122684
1.035e+10 0.9655610589 -0.0792956116 0.0127345388 -0.01047526063 0.01273434883 -0.01047536063 0.9656937878 -0.0785980458
1.04e+10 0.9652712191 -0.08337212181 0.01297448707 -0.00682017975 0.01297429711 -0.006820278746 0.9654078452 -0.08267085268
1.045e+10 0.9649497962 -0.08743449981 0.01324619882 -0.003178906997 0.01324601886 -0.003179003993 0.9650902193 -0.08672953745
1.05e+10 0.9645970917 -0.09148263557 0.01354944245 0.000448410114 0.01354925249 0.0004483143182 0.9647413118 -0.09077397007
1.055e+10 0.9642133074 -0.09551639911 0.01388393635 0.004061620102 0.0138837464 0.004061526106 0.9643614242 -0.09480404055
1.06e+10 0.9637987447 -0.09953568047 0.01424942895 0.007660572519 0.01424924899 0.007660480525 0.9639507582 -0.09881962892
1.065e+10 0.9633537053 -0.1035403397 0.01464566863 0.01124511395 0.01464547868 0.01124502396 0.9635097152 -0.1028205853
1.07e+10 0.9628783908 -0.107530347 0.01507238383 0.01481510451 0.01507219388 0.01481501452 0.963038397 -0.1068068997
1.075e+10 0.9623732027 -0.1115054923 0.01552932296 0.01837038435 0.01552913301 0.01837030435 0.9625372051 -0.1107783523
1.08e+10 0.9618383426 -0.115465676 0.01601621444 0.02191081364 0.01601603449 0.02191072365 0.962006341 -0.1147348433
1.085e+10 0.9612740121 -0.1194107982 0.01653279671 0.0254362326 0.01653261676 0.02543615261 0.9614462064 -0.1186763729
1.09e+10 0.9606806127 -0.123340859 0.0170788182 0.02894650147 0.01707863826 0.02894642147 0.9608569027 -0.1226027412
1.095e+10 0.960058346 -0.1272555589 0.01765398737 0.03244148052 0.01765381742 0.03244140053 0.9602387315 -0.1265137487
1.1e+10 0.9594075136 -0.1311548981 0.01825805267 0.03592102006 0.01825788272 0.03592094007 0.9595920945 -0.1304094954
1.105e+10 0.958728317 -0.1350387768 0.01889074255 0.03938498043 0.01889056261 0.03938491043 0.958917093 -0.1342896819
1.11e+10 0.9580210577 -0.1389070955 0.0195517755 0.04283323197 0.01955160556 0.04283315198 0.9582140287 -0.1381544084
1.115e+10 0.9572859372 -0.1427597545 0.02024088 0.04626562509 0.02024071006 0.0462655551 0.9574832031 -0.1420033752
1.12e+10 0.9565233571 -0.1465966543 0.02095778454 0.0496820402 0.02095761461 0.04968197021 0.9567249176 -0.1458365829
1.125e+10 0.9557334188 -0.1504175952 0.02170220764 0.05308233777 0.0217020377 0.05308227777 0.9559393738 -0.1496540318
1.13e+10 0.9549165238 -0.1542226778 0.02247386781 0.05646640825 0.02247370787 0.05646634825 0.9551268732 -0.1534554224
1.135e+10 0.9540728737 -0.1580116025 0.02327249358 0.05983412217 0.02327234364 0.05983406218 0.9542875172 -0.1572407552
1.14e+10 0.9532026698 -0.1617843699 0.02409781349 0.06318536005 0.02409765356 0.06318530005 0.9534218072 -0.1610100307
1.145e+10 0.9523062137 -0.1655409805 0.02494951611 0.06652001244 0.02494936617 0.06651995245 0.9525298448 -0.1647629495
1.15e+10 0.9513838067 -0.1692812348 0.02582735 0.06983796993 0.02582720007 0.06983791993 0.9516119314 -0.1684997121
1.155e+10 0.9504356503 -0.1730051335 0.02673102375 0.07313914313 0.02673087381 0.07313908313 0.9506682684 -0.1722200191
1.16e+10 0.9494620459 -0.1767124772 0.02766024597 0.07642340267 0.02766009604 0.07642335267 0.9496992572 -0.1759238711
1.165e+10 0.9484631949 -0.1804033666 0.02861473526 0.07969068919 0.02861459533 0.07969063919 0.9487049991 -0.1796111689
1.17e+10 0.9474392986 -0.1840775022 0.02959422026 0.08294089341 0.02959409032 0.08294083342 0.9476857957 -0.183281813
1.175e+10 0.9463907585 -0.1877349849 0.03059840961 0.08617393599 0.03059827967 0.086173876 0.9466418481 -0.1869358042
1.18e+10 0.9453177759 -0.1913757153 0.03162703199 0.08938973766 0.03162690205 0.08938968767 0.9455735579 -0.1905730431
1.185e+10 0.9442204521 -0.1949995941 0.03267979605 0.09258821919 0.03267967611 0.09258816919 0.9444810262 -0.1941934305
1.19e+10 0.9430991884 -0.1986066221 0.03375643048 0.09576933132 0.03375631055 0.09576928133 0.9433644545 -0.1977968672
1.195e+10 0.9419542861 -0.2021966001 0.03485665405 0.09893299483 0.03485654411 0.09893294484 0.942224344 -0.2013834538
1.2e+10 0.9407857466 -0.205769629 0.0359802054 0.1020791306 0.03598009545 0.1020791306 0.941060596 -0.2049529914
1.205e+10 0.939594071 -0.2093256094 0.03712679332 0.1052077693 0.03712669337 0.1052077693 0.9398737118 -0.2085054805
1.21e+10 0.9383792607 -0.2128643423 0.03829615657 0.1083187619 0.03829605662 0.1083187619 0.9386638926 -0.2120409221
1.215e+10 0.9371418168 -0.2163860284 0.03948802392 0.1114121092 0.03948793397 0.1114121092 0.9374312397 -0.2155591171
1.22e+10 0.9358817407 -0.2198903688 0.04070213415 0.1144878121 0.0407020442 0.1144878121 0.9361761543 -0.2190601662
1.225e+10 0.9345993335 -0.2233775642 0.04193822606 0.1175457715 0.04193814611 0.1175457715 0.9348987375 -0.2225438705
1.23e+10 0.9332948964 -0.2268474156 0.04319603848 0.1205859883 0.04319595852 0.1205859883 0.9335991907 -0.2260104307
1.235e+10 0.9319685306 -0.2302999239 0.04447532024 0.1236084634 0.04447524028 0.1236084634 0.9322779149 -0.2294595479
1.24e+10 0.9306206371 -0.23373499 0.04577581021 0.1266131978 0.04577575026 0.1266130979 0.9309350113 -0.2328913229
1.245e+10 0.9292512173 -0.2371527149 0.04709727724 0.1296000924 0.04709721729 0.1295999925 0.929570781 -0.2363056567
1.25e+10 0.9278606722 -0.2405528997 0.04843947022 0.1325691483 0.04843941027 0.1325690483 0.9281853252 -0.2397026503
1.255e+10 0.9264492028 -0.2439357451 0.04980214806 0.1355203663 0.04980209811 0.1355202663 0.926778945 -0.2430821047
1.26e+10 0.9250169104 -0.2473009524 0.05118507966 0.1384537475 0.05118503969 0.1384537475 0.9253518415 -0.2464440209
1.265e+10 0.923564096 -0.2506487224 0.05258803393 0.1413693929 0.05258800396 0.141369293 0.9239042157 -0.2497884999
1.27e+10 0.9220909606 -0.2539788562 0.05401079984 0.1442671036 0.05401075987 0.1442671036 0.9224362688 -0.2531154426
1.275e+10 0.9205977053 -0.2572914549 0.05545313634 0.1471470805 0.05545310638 0.1471469805 0.9209483017 -0.2564248502
1.28e+10 0.9190845312 -0.2605865195 0.05691485237 0.1500092247 0.05691482241 0.1500091248 0.9194403156 -0.2597166238
1.285e+10 0.9175516392 -0.2638638511 0.05839571697 0.1528535374 0.05839569701 0.1528534375 0.9179127113 -0.2629907643
1.29e+10 0.9159992304 -0.2671236508 0.05989552909 0.1556801195 0.05989551912 0.1556800196 0.91636559 -0.266247273
1.295e+10 0.9144275058 -0.2703657197 0.06141409782 0.1584887723 0.06141408783 0.1584887723 0.9147992526 -0.2694861508
1.3e+10 0.9128365664 -0.2735901589 0.06295123204 0.1612797967 0.06295122207 0.1612796968 0.9132137001 -0.2727074988
1.305e+10 0.911226713 -0.2767968695 0.06450673091 0.1640529941 0.06450673094 0.1640528941 0.9116092335 -0.2759110184
1.31e+10 0.9095981467 -0.2799859527 0.06608041346 0.1668084653 0.06608041348 0.1668083654 0.9099860537 -0.2790969104
1.315e+10 0.9079509684 -0.2831573096 0.06767209873 0.1695462117 0.06767210874 0.1695461117 0.9083443617 -0.2822651762
1.32e+10 0.9062853791 -0.2863109414 0.0692816158 0.1722662343 0.06928162582 0.1722661344 0.9066842584 -0.2854157168
1.325e+10 0.9046015795 -0.2894468493 0.07090879379 0.1749685345 0.07090880381 0.1749684346 0.9050059446 -0.2885484336
1.33e+10 0.9028996708 -0.2925650346 0.07255347177 0.1776531134 0.07255348179 0.1776530135 0.9033096213 -0.2916635276
1.335e+10 0.9011799536 -0.2956653984 0.07421547889 0.1803200721 0.07421549891 0.1803199722 0.9015954894 -0.2947609001
1.34e+10 0.8994425289 -0.2987480418 0.07589466426 0.1829694119 0.07589468427 0.182969312 0.8998636497 -0.2978404523
1.345e+10 0.8976874977 -0.3018129662 0.07759086704 0.1856010341 0.07759089704 0.1856009342 0.898114303 -0.3009022854
1.35e+10 0.8959151605 -0.3048600729 0.07930395637 0.1882150399 0.07930399636 0.18821494 0.8963475504 -0.3039463008
1.355e+10 0.8941256183 -0.3078893631 0.08103378145 0.1908114305 0.08103382145 0.1908113306 0.8945636924 -0.3069725996
1.36e+10 0.892318972 -0.3109008381 0.08278020142 0.1933902073 0.08278023146 0.1933900075 0.89276273 -0.3099810831
1.365e+10 0.8904954223 -0.3138944992 0.08454306558 0.1959512716 0.08454310557 0.1959511717 0.890944964 -0.3129717528
1.37e+10 0.8886551699 -0.3168703477 0.08632226304 0.1984948246 0.08632230307 0.1984946248 0.889110495 -0.3159446097
1.375e+10 0.8867983158 -0.319828385 0.08811765309 0.2010206678 0.08811769309 0.2010205679 0.887259424 -0.3188996554
1.38e+10 0.8849250605 -0.3227686122 0.08992909495 0.2035290023 0.08992914496 0.2035288025 0.8853919516 -0.321836891
1.385e+10 0.883035405 -0.325690931 0.09175648787 0.2060196298 0.09175653785 0.2060195299 0.8835081786 -0.3247562182
1.39e+10 0.8811296497 -0.3285953426 0.09359968117 0.2084926514 0.09359974115 0.2084925515 0.8816083056 -0.327657738
1.395e+10 0.8792078955 -0.3314818485 0.09545857415 0.2109480686 0.09545863416 0.2109478688 0.8796925334 -0.3305412521
1.4e+10 0.877270343 -0.33435045 0.0973330461 0.2133857827 0.09733310608 0.2133856829 0.8777608627 -0.3334069616
1.405e+10 0.875316993 -0.3372012484 0.09922297627 0.2158058953 0.0992230263 0.2158056955 0.8758134942 -0.3362547682
1.41e+10 0.873348146 -0.3400339454 0.1011282841 0.2182083077 0.1011282842 0.2182081079 0.8738506284 -0.3390846731
1.415e+10 0.8713638027 -0.3428487423 0.1030487191 0.2205930214 0.103048819 0.2205928217 0.871872366 -0.3418965779
1.42e+10 0.8693641638 -0.3456456406 0.1049843503 0.222959938 0.1049843503 0.2229598381 0.8698787077 -0.3446905841
1.425e+10 0.8673493297 -0.3484244419 0.1069348774 0.2253091589 0.1069349774 0.225309059 0.8678700539 -0.3474664931
1.43e+10 0.8653195011 -0.3511852475 0.1089003996 0.2276406854 0.1089004996 0.2276404856 0.8658464053 -0.3502245063
1.435e+10 0.8632747785 -0.353927959 0.1108806166 0.2299543193 0.1108807166 0.2299541195 0.8638078625 -0.3529644254
1.44e+10 0.8612153624 -0.356652678 0.1128755277 0.232250062 0.1128756277 0.2322498623 0.861754526 -0.3556863518
1.445e+10 0.8591412534 -0.3593593058 0.1148849325 0.2345280151 0.1148850324 0.2345278153 0.8596866961 -0.358390187
1.45e+10 0.8570526519 -0.3620478442 0.1169088303 0.2367879802 0.1169088304 0.2367877804 0.8576043735 -0.3610758328
1.455e+10 0.8549497585 -0.3647181947 0.1189470208 0.2390300587 0.1189470209 0.2390298589 0.8555077586 -0.3637434904
1.46e+10 0.8528325735 -0.3673704588 0.1209993036 0.2412541523 0.1209994035 0.2412539525 0.8533969519 -0.3663929615
1.465e+10 0.8507013973 -0.3700044383 0.1230657781 0.2434601627 0.1230657782 0.2434599629 0.8512721536 -0.3690242478
1.47e+10 0.8485562303 -0.3726202345 0.1251461441 0.2456480913 0.1251461442 0.2456478915 0.8491333644 -0.3716373509
1.475e+10 0.8463971731 -0.3752178493 0.1272403011 0.2478179399 0.1272404011 0.2478176403 0.8469807845 -0.3742321724
1.48e+10 0.8442245258 -0.3777971841 0.1293482488 0.2499695101 0.1293483488 0.2499693104 0.8448145144 -0.3768088139
1.485e+10 0.8420382887 -0.3803581407 0.1314697868 0.2521029036 0.1314697869 0.2521027038 0.8426348541 -0.3793671768
1.49e+10 0.8398386622 -0.3829008207 0.133604715 0.2542180219 0.133604815 0.2542178222 0.8404417041 -0.3819071632
1.495e+10 0.8376256467 -0.3854252256 0.1357530329 0.2563148667 0.135753033 0.2563146669 0.8382353647 -0.3844288743
1.5e+10 0.8353996421 -0.3879311573 0.1379144406 0.2583932398 0.1379145406 0.2583930401 0.8360158361 -0.3869322121
1.505e+10 0.833160449 -0.3904186176 0.1400890374 0.2604532429 0.1400891374 0.2604530432 0.8337833185 -0.3894170782
1.51e+10 0.8309084672 -0.3928877078 0.1422765235 0.2624947775 0.1422766235 0.2624944779 0.8315380121 -0.391883674
1.515e+10 0.8286437971 -0.3953383297 0.1444767987 0.2645177455 0.1444768987 0.2645174459 0.8292800169 -0.3943317015
1.52e+10 0.8263664388 -0.397770485 0.1466897626 0.2665221485 0.1466897628 0.2665218488 0.8270094332 -0.3967612623
1.525e+10 0.8240765924 -0.4001840756 0.1489152154 0.2685078882 0.1489152156 0.2685075886 0.8247263612 -0.3991723581
1.53e+10 0.821774458 -0.4025791029 0.1511530569 0.2704749664 0.1511530571 0.2704746668 0.8224310009 -0.4015648906
1.535e+10 0.8194600356 -0.4049555689 0.1534030871 0.2724232848 0.1534030873 0.2724229851 0.8201235521 -0.4039388614
1.54e+10 0.8171336253 -0.4073134751 0.155665206 0.2743527451 0.155665306 0.2743525454 0.8178040152 -0.4062942723
1.545e+10 0.8147953269 -0.4096526233 0.1579393135 0.2762635489 0.1579393137 0.2762632493 0.81547259 -0.4086310251
1.55e+10 0.8124451407 -0.4119732151 0.1602251097 0.2781553981 0.1602252098 0.2781550986 0.8131293765 -0.4109491214
1.555e+10 0.8100833663 -0.4142750525 0.1625225948 0.2800282945 0.1625226948 0.280027995 0.8107745746 -0.413248563
1.56e+10 0.8077101037 -0.416558137 0.1648315686 0.2818822397 0.1648315687 0.28188204 0.8084082843 -0.4155293513
1.565e+10 0.805325453 -0.4188225703 0.1671518315 0.2837172353 0.1671518317 0.2837169357 0.8060307054 -0.4177913885
1.57e+10 0.8029296137 -0.4210681542 0.1694831837 0.2855331832 0.1694832837 0.2855328837 0.8036419378 -0.4200346759
1.575e+10 0.8005226859 -0.4232949904 0.1718256251 0.2873299852 0.1718257251 0.2873297856 0.8012420814 -0.4222592155
1.58e+10 0.7981047696 -0.4255030805 0.1741789559 0.2891078427 0.1741789561 0.2891075431 0.7988314358 -0.4244650087
1.585e+10 0.795676064 -0.4276922265 0.1765428766 0.2908664578 0.1765428768 0.2908661582 0.7964099009 -0.4266519576
1.59e+10 0.7932367692 -0.4298626297 0.1789172874 0.292605932 0.1789173875 0.2926056324 0.7939777765 -0.4288200636
1.595e+10 0.790786885 -0.4320140921 0.1813020885 0.294326267 0.1813021886 0.2943259675 0.7915351623 -0.4309693285
1.6e+10 0.7883266111 -0.4341467154 0.18369718 0.2960273646 0.1836971802 0.296027065 0.7890821582 -0.4330998539
1.605e+10 0.785856147 -0.436260501 0.1861021628 0.2977092263 0.1861022628 0.2977089268 0.7866190634 -0.4352114416
1.61e+10 0.7833755923 -0.438355251 0.1885170368 0.2993718542 0.1885171368 0.2993716545 0.784145778 -0.4373040934
1.615e+10 0.7808850469 -0.4404311668 0.1909417024 0.3010152495 0.1909418024 0.3010150499 0.7816627013 -0.4393779107
1.62e+10 0.7783847103 -0.4424881501 0.1933758602 0.3026394142 0.1933759602 0.3026391147 0.7791697332 -0.4414327953
1.625e+10 0.7758747818 -0.4445262026 0.1958194105 0.3042442498 0.1958194106 0.3042440501 0.7766671731 -0.4434688488
1.63e+10 0.7733552614 -0.4465453259 0.1982721538 0.3058298581 0.198272154 0.3058296584 0.7741551206 -0.445485873
1.635e+10 0.7708263485 -0.4485455217 0.2007338907 0.3073962404 0.2007339908 0.307395941 0.7716337752 -0.4474840693
1.64e+10 0.7682881426 -0.4505266918 0.2032046214 0.308943299 0.2032047214 0.3089430994 0.7691031365 -0.4494632397
1.645e+10 0.7657408431 -0.4524889377 0.2056840466 0.310471135 0.2056841467 0.3104708355 0.766563404 -0.4514234856
1.65e+10 0.7631846494 -0.454432161 0.2081720669 0.3119796502 0.2081721669 0.3119794506 0.7640147771 -0.4533649085
1.655e+10 0.7606195613 -0.4563564635 0.2106685827 0.3134689463 0.2106686827 0.3134687467 0.7614573554 -0.4552873103
1.66e+10 0.7580456781 -0.4582617466 0.2131732946 0.3149391247 0.2131733946 0.3149388252 0.7588912382 -0.4571907924
1.665e+10 0.7554633989 -0.4601481119 0.2156861034 0.3163899872 0.2156862034 0.3163896877 0.7563165249 -0.4590752567
1.67e+10 0.7528726236 -0.462015561 0.2182070093 0.3178216353 0.2182071093 0.3178214357 0.7537335151 -0.4609409044
1.675e+10 0.7502735512 -0.4638639957 0.2207356134 0.3192341706 0.2207357135 0.3192338711 0.7511422078 -0.4627875373
1.68e+10 0.7476662814 -0.4656935174 0.2232720159 0.3206274948 0.2232721159 0.3206272952 0.748542703 -0.4646152571
1.685e+10 0.7450510132 -0.4675040278 0.2258159177 0.3220017093 0.2258160177 0.3220015097 0.7459351996 -0.466424165
1.69e+10 0.7424278461 -0.4692956284 0.2283672195 0.3233568157 0.2283673195 0.3233566161 0.7433198968 -0.4682140629
1.695e+10 0.7397968794 -0.4710683207 0.230925722 0.3246929154 0.2309259219 0.3246926161 0.7406967942 -0.4699850523
1.7e+10 0.7371582126 -0.4728221063 0.2334914257 0.3260099104 0.2334915258 0.3260096109 0.738066091 -0.4717371346
1.705e+10 0.7345121446 -0.4745569866 0.2360641315 0.3273079018 0.2360642317 0.3273076023 0.7354278866 -0.4734704114
1.71e+10 0.731858575 -0.4762728637 0.2386437403 0.3285867916 0.2386438403 0.328586592 0.73278238 -0.4751846844
1.715e+10 0.7291978028 -0.4779699384 0.2412300525 0.3298468806 0.2412301526 0.3298465812 0.7301295708 -0.4768802548
1.72e+10 0.7265298275 -0.4796481127 0.2438229691 0.331087971 0.2438231689 0.3310877715 0.727469658 -0.4785568246
1.725e+10 0.723854848 -0.4813073881 0.2464224907 0.3323101642 0.2464225907 0.3323099646 0.7248027409 -0.4802145949
1.73e+10 0.7211729637 -0.482947766 0.2490283182 0.3335135613 0.2490285182 0.333513262 0.7221289188 -0.4818535674
1.735e+10 0.7184843738 -0.4845694475 0.2516404525 0.3346980642 0.2516406523 0.3346978647 0.7194482908 -0.4834737436
1.74e+10 0.7157889774 -0.486172135 0.2542586945 0.3358637743 0.2542588944 0.3358635749 0.7167611557 -0.4850750249
1.745e+10 0.7130870737 -0.4877561293 0.2568830446 0.337010793 0.2568832445 0.3370104937 0.7140673135 -0.4866576129
1.75e+10 0.7103786621 -0.4893212323 0.2595134039 0.3381390221 0.2595136038 0.3381388226 0.7113671627 -0.4882214091
1.755e+10 0.7076640411 -0.4908675452 0.2621495735 0.3392485627 0.2621497734 0.3392483632 0.7086607026 -0.4897664149
1.76e+10 0.7049431104 -0.4923951696 0.2647914541 0.3403394165 0.2647916539 0.340339217 0.7059480322 -0.491292632
1.765e+10 0.7022160688 -0.4939039072 0.2674390464 0.3414116849 0.2674392464 0.3414113856 0.7032292508 -0.4928001617
1.77e+10 0.6994830157 -0.4953939593 0.2700922516 0.3424652696 0.2700924514 0.3424650702 0.7005045574 -0.4942889055
1.775e+10 0.6967440498 -0.4968652273 0.2727508704 0.3435003717 0.2727510704 0.3435000725 0.6977739511 -0.495758965
1.78e+10 0.69399937 -0.4983178127 0.2754148043 0.344516793 0.2754150042 0.3445164937 0.6950376307 -0.4972103414
1.785e+10 0.6912489759 -0.499751717 0.2780840536 0.3455147347 0.2780843534 0.3455144356 0.6922955957 -0.4986430364
1.79e+10 0.6884929662 -0.501166842 0.2807586194 0.3464940988 0.2807588193 0.3464938994 0.6895480448 -0.5000570515
1.795e+10 0.6857315397 -0.5025632886 0.283438203 0.347455086 0.2834384029 0.3474547868 0.686794977 -0.5014523881
1.8e+10 0.6829646957 -0.5039410588 0.2861228054 0.3483974983 0.2861231052 0.3483971992 0.6840366911 -0.5028290476
1.805e+10 0.6801925331 -0.5053001538 0.2888124273 0.3493214372 0.2888127271 0.3493211381 0.6812730864 -0.5041870317
1.81e+10 0.6774152506 -0.506640575 0.29150687 0.3502270038 0.2915071698 0.3502267047 0.6785043618 -0.5055264414
1.815e+10 0.6746329472 -0.507962324 0.2942061347 0.351114 0.2942064344 0.3511138008 0.675730516 -0.5068471787
1.82e+10 0.6718455221 -0.5092654025 0.2969101222 0.351982627 0.2969104219 0.3519824277 0.672951848 -0.5081493446
1.825e+10 0.6690533736 -0.5105498114 0.2996187339 0.3528328862 0.2996190337 0.3528325871 0.6701682567 -0.5094328409
1.83e+10 0.666256401 -0.5118156525 0.3023319706 0.3536646792 0.3023321706 0.35366438 0.6673799408 -0.5106976691
1.835e+10 0.6634547031 -0.5130628273 0.3050496339 0.3544780075 0.3050498339 0.3544777083 0.6645869993 -0.5119440301
1.84e+10 0.6606484784 -0.5142913371 0.3077716249 0.3552729722 0.3077719247 0.3552726732 0.6617895309 -0.5131717257
1.845e+10 0.6578378258 -0.5155012832 0.3104980445 0.3560494753 0.3104983443 0.3560491763 0.6589875345 -0.5143807577
1.85e+10 0.6550227441 -0.5166925674 0.3132286942 0.356807518 0.3132289941 0.3568072189 0.6561812086 -0.5155712271
1.855e+10 0.6522033323 -0.5178652908 0.3159634753 0.3575472014 0.3159637751 0.3575469023 0.653370752 -0.516743135
1.86e+10 0.6493797883 -0.5190192552 0.3187022892 0.3582683274 0.318702589 0.3582680284 0.6505559637 -0.5178964834
1.865e+10 0.6465522115 -0.5201547613 0.3214451369 0.358971097 0.3214454367 0.358970798 0.6477372419 -0.5190311734
1.87e+10 0.6437206003 -0.5212715115 0.3241919199 0.3596553121 0.3241923195 0.3596550132 0.6449145856 -0.5201474064
1.875e+10 0.6408850535 -0.5223697065 0.3269426394 0.360321074 0.3269429392 0.360320775 0.6420879934 -0.5212448843
1.88e+10 0.6380457695 -0.5234493476 0.329696997 0.3609683836 0.3296972968 0.3609680846 0.6392576638 -0.5223239077
1.885e+10 0.6352027468 -0.5245102367 0.3324549943 0.3615971428 0.3324552941 0.3615968438 0.6364236952 -0.5233842784
1.89e+10 0.632356184 -0.5255525749 0.3352166325 0.3622073529 0.3352169325 0.3622069541 0.6335861863 -0.5244259979
1.895e+10 0.6295061794 -0.5265762634 0.3379817134 0.3627989153 0.3379820132 0.3627986163 0.6307452355 -0.5254491672
1.9e+10 0.6266527319 -0.5275813038 0.3407501381 0.363372031 0.340750438 0.3633716322 0.6279008417 -0.5264537877
1.905e+10 0.6237960398 -0.5285677971 0.3435219084 0.3639264018 0.3435222083 0.3639261028 0.6250533028 -0.5274397609
1.91e+10 0.6209361014 -0.5295355452 0.3462968258 0.3644622287 0.3462972254 0.3644619298 0.6222025177 -0.528407188
1.915e+10 0.6180731153 -0.5304847488 0.3490748918 0.364979413 0.3490752916 0.3649790144 0.6193487843 -0.5293559702
1.92e+10 0.6152071797 -0.5314153093 0.3518560081 0.3654778565 0.351856308 0.3654775576 0.6164920015 -0.5302861092
1.925e+10 0.6123383927 -0.5323271282 0.3546398767 0.3659576597 0.3546402765 0.3659572611 0.6136324672 -0.5311977055
1.93e+10 0.6094667534 -0.5332204065 0.3574265988 0.3664187244 0.3574269986 0.3664183258 0.61077018 -0.5320906609
1.935e+10 0.6065925591 -0.5340949456 0.3602159765 0.3668609517 0.3602163762 0.366860653 0.607905338 -0.5329650762
1.94e+10 0.6037158087 -0.5349509463 0.3630079114 0.3672844428 0.363008311 0.367284144 0.6050379394 -0.5338207531
1.945e+10 0.6008366002 -0.5357882103 0.365802305 0.3676891988 0.3658027048 0.3676888003 0.6021680828 -0.5346578925
1.95e+10 0.5979551316 -0.5366067385 0.3685989598 0.3680751208 0.3685993596 0.3680747223 0.5992960659 -0.5354763952
1.955e+10 0.5950714015 -0.537406732 0.371397877 0.3684421105 0.3713982768 0.3684417119 0.5964217871 -0.5362761633
1.96e+10 0.5921855081 -0.5381879919 0.3741988585 0.3687903682 0.3741992583 0.3687899696 0.5935454451 -0.5370574966
1.965e+10 0.5892977489 -0.5389506194 0.3770018066 0.3691195957 0.3770022064 0.3691191971 0.5906671371 -0.5378200973
1.97e+10 0.5864080228 -0.5396946154 0.3798066227 0.3694299937 0.3798070225 0.3694295952 0.5877869619 -0.538564066
1.975e+10 0.5835166275 -0.5404199806 0.3826131089 0.3697215629 0.3826135087 0.3697211644 0.5849051175 -0.5392895032
1.98e+10 0.580623461 -0.5411266169 0.3854211674 0.3699941051 0.3854215673 0.3699937066 0.5820216015 -0.5399962108
1.985e+10 0.577728921 -0.5418146243 0.3882306002 0.3702477206 0.388231 0.3702473221 0.5791366123 -0.5406843891
1.99e+10 0.5748329063 -0.5424840043 0.3910414089 0.3704824106 0.3910418087 0.3704820122 0.576250248 -0.5413539392
1.995e+10 0.5719355147 -0.5431347577 0.3938533955 0.3706981761 0.3938537953 0.3706977776 0.5733627063 -0.542004862
2e+10 0.5690370438 -0.5437667852 0.3966663624 0.3708950177 0.396666862 0.3708946194 0.5704738859 -0.5426372585
2.005e+10 0.5661374919 -0.5443802878 0.3994803113 0.3710728366 0.3994807111 0.3710724382 0.5675840839 -0.5432510294
2.01e+10 0.5632369567 -0.5449750664 0.4022949446 0.3712317335 0.4022953444 0.3712313351 0.5646933986 -0.5438461755
2.015e+10 0.5603357363 -0.5455513211 0.4051101643 0.3713717088 0.4051106639 0.3713713105 0.5618019281 -0.5444227976
2.02e+10 0.5574337287 -0.5461089535 0.407925972 0.3714927637 0.4079263718 0.3714923653 0.5589097703 -0.5449808963
2.025e+10 0.5545311318 -0.5466480639 0.4107419705 0.3715947988 0.4107424701 0.3715944006 0.556017023 -0.5455204725
2.03e+10 0.5516280434 -0.547168553 0.4135582613 0.3716780147 0.4135586612 0.3716776163 0.5531238842 -0.5460415267
2.035e+10 0.5487246616 -0.5476705215 0.416374547 0.371742312 0.4163750467 0.3717419139 0.5502304518 -0.5465440597
2.04e+10 0.545821084 -0.5481539697 0.4191907296 0.3717877913 0.4191912292 0.3717873931 0.5473368235 -0.5470280719
2.045e+10 0.5429174086 -0.5486188985 0.4220067109 0.3718144533 0.4220072107 0.3718139553 0.5444430976 -0.547493664
2.05e+10 0.5400137333 -0.5490653085 0.4248222937 0.3718221986 0.4248227933 0.3718218005 0.5415494714 -0.5479407366
2.055e+10 0.5371101561 -0.5494933001 0.4276373793 0.3718112276 0.4276377794 0.3718107294 0.5386559433 -0.54836949
2.06e+10 0.5342068748 -0.5499028736 0.4304517706 0.3717814407 0.4304522703 0.3717810426 0.5357627112 -0.5487798249
2.065e+10 0.531303987 -0.5502939298 0.4332653695 0.3717330383 0.4332658694 0.3717325404 0.5328699723 -0.5491717415
2.07e+10 0.5284015907 -0.5506666686 0.4360779782 0.3716659209 0.436078478 0.371665423 0.5299776253 -0.5495453405
2.075e+10 0.5254998839 -0.5510210907 0.4388895987 0.3715800891 0.4388900983 0.371579691 0.5270859676 -0.5499006221
2.08e+10 0.5225987646 -0.5513570969 0.441700033 0.3714757431 0.4417005327 0.371475345 0.5241950973 -0.5502376866
2.085e+10 0.5196986303 -0.5516748865 0.4445090837 0.3713528828 0.4445095833 0.3713524848 0.5213051119 -0.5505564343
2.09e+10 0.516799379 -0.5519743606 0.4473166525 0.3712116088 0.4473171524 0.371211111 0.5184161096 -0.5508569656
2.095e+10 0.5139012087 -0.5522556194 0.4501226419 0.3710518216 0.4501232415 0.371051324 0.5155281883 -0.5511393808
2.1e+10 0.5110042172 -0.5525187627 0.4529269538 0.3708736214 0.4529274537 0.3708731236 0.5126414456 -0.5514035803
2.105e+10 0.5081085025 -0.5527636913 0.4557293906 0.3706771082 0.45572999 0.3706767103 0.5097560798 -0.5516497638
2.11e+10 0.505214262 -0.5529905048 0.4585298542 0.3704623819 0.4585304537 0.3704619841 0.5068721882 -0.5518778318
2.115e+10 0.5023215939 -0.5531992037 0.4613283466 0.3702295432 0.4613288465 0.3702290454 0.5039897692 -0.5520877848
2.12e+10 0.4994304964 -0.5533899881 0.4641245702 0.3699784919 0.4641251698 0.3699779943 0.5011090206 -0.5522798224
2.125e+10 0.4965410668 -0.5535626583 0.4669184273 0.3697093283 0.4669190269 0.3697088307 0.49823004 -0.5524539448
2.13e+10 0.4936536034 -0.5537174141 0.4697100192 0.3694222523 0.4697106189 0.3694217548 0.4953529259 -0.5526101524
2.135e+10 0.490768004 -0.5538542559 0.4724990489 0.3691171644 0.4724996486 0.3691166668 0.4924777754 -0.5527484452
2.14e+10 0.4878844665 -0.5539732833 0.4752854181 0.3687942639 0.4752860177 0.3687937664 0.489604687 -0.5528689231
2.145e+10 0.4850030887 -0.5540743969 0.4780691288 0.3684535514 0.4780697285 0.3684530539 0.4867338584 -0.5529716859
2.15e+10 0.4821240686 -0.5541577961 0.4808499835 0.3680951266 0.4808506829 0.3680946293 0.4838652875 -0.5530566342
2.155e+10 0.4792473042 -0.5542234814 0.4836279836 0.36771899 0.4836286831 0.3677184927 0.4809989726 -0.5531239679
2.16e+10 0.4763729933 -0.5542714529 0.4864030316 0.3673252412 0.4864037311 0.367324744 0.4781352112 -0.5531736868
2.165e+10 0.473501234 -0.5543018099 0.4891749296 0.3669140798 0.4891756293 0.3669134828 0.4752741009 -0.5532056906
2.17e+10 0.4706321241 -0.5543145532 0.4919437795 0.3664853067 0.491944479 0.3664848095 0.4724155408 -0.5532202799
2.175e+10 0.4677657614 -0.5543096824 0.4947093835 0.3660392213 0.4947100829 0.3660387241 0.4695597279 -0.5532172545
2.18e+10 0.4649021443 -0.5542873973 0.4974716433 0.3655758231 0.497472343 0.3655752262 0.4667068603 -0.5531969136
2.185e+10 0.4620415698 -0.5542475977 0.5002304617 0.3650951126 0.5002311614 0.3650945157 0.463856836 -0.553159058
2.19e+10 0.4591839368 -0.5541903841 0.5029859401 0.3645971898 0.5029866398 0.3645965929 0.4610099527 -0.5531037874
2.195e+10 0.4563294429 -0.5541158558 0.5057378808 0.3640820543 0.5057385803 0.3640815572 0.4581661089 -0.5530313016
2.2e+10 0.4534780859 -0.5540240129 0.5084861857 0.363549906 0.5084868854 0.3635493091 0.4553254022 -0.5529415006
2.205e+10 0.4506299639 -0.5539147558 0.511230857 0.3630007447 0.5112316565 0.3630001481 0.4524881306 -0.5528344839
2.21e+10 0.4477852747 -0.5537883833 0.5139717967 0.3624345704 0.5139725962 0.3624339738 0.449654092 -0.5527102519
2.215e+10 0.4449439164 -0.5536447963 0.5167090069 0.3618514831 0.5167098066 0.3618507868 0.446823584 -0.5525688044
2.22e+10 0.4421061865 -0.5534839942 0.5194424895 0.3612514828 0.5194431895 0.3612507862 0.4439966051 -0.5524103409
2.225e+10 0.4392719835 -0.5533061767 0.5221719471 0.3606345688 0.5221727466 0.3606339723 0.4411732528 -0.5522347615
2.23e+10 0.4364415045 -0.5531111439 0.5248974814 0.3600009411 0.5248982809 0.3600003446 0.438353625 -0.5520421657
2.235e+10 0.4336147484 -0.5528991955 0.5276190939 0.3593505997 0.5276198937 0.3593499034 0.4355377203 -0.5518326537
2.24e+10 0.4307919122 -0.5526702312 0.5303365879 0.3586834442 0.5303374875 0.3586827482 0.4327257354 -0.5516061253
2.245e+10 0.4279728942 -0.5524242512 0.5330500646 0.3579996748 0.5330508644 0.3579989786 0.4299176691 -0.55136268
2.25e+10 0.4251578924 -0.5521614547 0.5357593265 0.3572991909 0.5357601263 0.3572984947 0.4271136189 -0.5511024177
2.255e+10 0.4223470041 -0.551881642 0.5384643757 0.3565821922 0.5384652756 0.3565813965 0.4243136827 -0.5508252383
2.26e+10 0.4195403274 -0.5515851121 0.5411652143 0.3558484788 0.5411660144 0.3558476829 0.4215178585 -0.5505313414
2.265e+10 0.4167377604 -0.5512716657 0.5438616446 0.3550982502 0.5438625445 0.3550974545 0.4187263438 -0.5502206267
2.27e+10 0.4139396005 -0.5509415017 0.5465537687 0.3543314063 0.5465546685 0.3543306107 0.4159391366 -0.5498931941
2.275e+10 0.4111458455 -0.5505945204 0.5492414886 0.3535480467 0.5492423885 0.3535472511 0.4131564347 -0.5495491427
2.28e+10 0.4083564935 -0.5502308212 0.5519247068 0.3527481713 0.5519256067 0.3527473757 0.4103781357 -0.5491882732
2.285e+10 0.405571742 -0.5498505034 0.5546033254 0.3519317792 0.5546042253 0.3519309836 0.4076044377 -0.5488108841
2.29e+10 0.4027915888 -0.5494534674 0.5572774466 0.351098871 0.5572783465 0.3510980754 0.4048353382 -0.5484167764
2.295e+10 0.4000161317 -0.5490398121 0.5599467727 0.3502495451 0.5599476729 0.3502486498 0.4020710349 -0.5480061482
2.3e+10 0.3972455678 -0.5486095373 0.5626114063 0.3493836021 0.5626123065 0.3493827068 0.3993115255 -0.5475789999
2.305e+10 0.394479796 -0.5481627427 0.5652712491 0.3485012411 0.565272249 0.3485003462 0.3965569082 -0.547135331
2.31e+10 0.3917190129 -0.5476993278 0.5679263037 0.3476023622 0.5679272039 0.347601467 0.39380728 -0.5466751409
2.315e+10 0.3889632165 -0.5472193919 0.5705762727 0.346687064 0.5705771732 0.3466860691 0.3910627385 -0.546198429
2.32e+10 0.3862126046 -0.5467229348 0.5732213579 0.345755247 0.5732222585 0.3457542521 0.3883232821 -0.5457052953
2.325e+10 0.3834671746 -0.5462100555 0.5758612624 0.3448069099 0.5758621629 0.344805915 0.3855891077 -0.5451957384
2.33e+10 0.3807270243 -0.5456807536 0.578495988 0.3438420525 0.5784968886 0.3438410576 0.3828602135 -0.5446698581
2.335e+10 0.3779923506 -0.5451349284 0.5811254377 0.342860674 0.5811263383 0.3428596791 0.3801367964 -0.5441275537
2.34e+10 0.3752630522 -0.5445727792 0.5837495132 0.3418628738 0.5837504141 0.3418617792 0.3774187544 -0.543568825
2.345e+10 0.372539426 -0.543994305 0.5863681176 0.3408484511 0.586369118 0.3408474566 0.3747063853 -0.5429938704
2.35e+10 0.3698213695 -0.5433994057 0.5889812527 0.3398176055 0.5889821537 0.3398165109 0.3719996861 -0.5424025896
2.355e+10 0.3671090806 -0.5427881801 0.5915887213 0.338770236 0.5915896222 0.3387691414 0.3692986554 -0.5417950819
2.36e+10 0.3644026563 -0.5421606275 0.5941904262 0.3377062418 0.5941913272 0.3377051473 0.3666035894 -0.5411713461
2.365e+10 0.3617020949 -0.5415168468 0.5967862692 0.3366258219 0.5967871703 0.3366247274 0.3639144865 -0.5405313812
2.37e+10 0.3590076931 -0.5408568364 0.5993760535 0.3355288751 0.5993769549 0.3355276809 0.3612313438 -0.5398751868
2.375e+10 0.3563193491 -0.5401805967 0.6019598813 0.3344153015 0.6019607823 0.334414207 0.3585544591 -0.5392028615
2.38e+10 0.3536372599 -0.5394881258 0.6045374548 0.333285299 0.6045383559 0.3332842046 0.3558837301 -0.5385144044
2.385e+10 0.3509614235 -0.5387795229 0.6071086769 0.3321387669 0.6071095783 0.3321375727 0.3532194535 -0.5378098141
2.39e+10 0.3482921368 -0.5380547862 0.60967345 0.3309757041 0.6096743514 0.3309745099 0.3505615279 -0.5370891899
2.395e+10 0.3456292982 -0.5373140153 0.6122316765 0.3297961096 0.6122325779 0.3297949155 0.3479101503 -0.5363525305
2.4e+10 0.3429732044 -0.5365571084 0.6147832588 0.3286000819 0.6147840605 0.3285988875 0.3452655182 -0.5355998343
2.405e+10 0.3403238531 -0.5357841643 0.6173278997 0.3273876193 0.6173287018 0.3273863252 0.3426276292 -0.5348312
2.41e+10 0.3376812427 -0.534995282 0.6198656016 0.3261586215 0.6198664033 0.3261574272 0.3399965811 -0.5340466267
2.415e+10 0.3350456694 -0.5341903599 0.622396167 0.3249131865 0.6223969687 0.3249119922 0.3373724714 -0.5332462127
2.42e+10 0.332417132 -0.5333695962 0.624919498 0.3236514128 0.6249202998 0.3236502184 0.3347554974 -0.5324298566
2.425e+10 0.3297958274 -0.5325329894 0.6274353971 0.3223732986 0.6274361992 0.3223720046 0.3321456572 -0.5315977567
2.43e+10 0.3271817538 -0.5316805384 0.629943767 0.321078843 0.6299446689 0.3210775493 0.3295431479 -0.5307498118
2.435e+10 0.324575108 -0.5308122414 0.6324445101 0.3197680443 0.6324453123 0.3197667503 0.3269480675 -0.5298862197
2.44e+10 0.3219759885 -0.5299282965 0.6349374284 0.3184410005 0.6349382306 0.3184397065 0.3243605137 -0.5290069792
2.445e+10 0.3193844924 -0.529028602 0.6374223247 0.3170978099 0.637423127 0.3170965159 0.3217805839 -0.5281119885
2.45e+10 0.3168006179 -0.5281132565 0.6398991009 0.315738471 0.6398998034 0.3157371767 0.3192083763 -0.5272015454
2.455e+10 0.3142246627 -0.5271823576 0.6423675594 0.3143630815 0.6423683617 0.3143617875 0.3166439886 -0.5262755487
2.46e+10 0.311656724 -0.5262359038 0.6448277026 0.3129716401 0.6448284051 0.3129703458 0.3140876183 -0.5253340962
2.465e+10 0.309096701 -0.5252740932 0.6472792321 0.3115643445 0.647279935 0.3115629505 0.3115392634 -0.5243771862
2.47e+10 0.30654489 -0.5242967242 0.6497220509 0.3101410931 0.6497228536 0.3101396995 0.3089990222 -0.5234050169
2.475e+10 0.3040013899 -0.5233040939 0.6521560607 0.3087020835 0.6521567636 0.3087006895 0.3064671917 -0.5224174856
2.48e+10 0.3014662985 -0.5222962006 0.6545810633 0.3072474137 0.6545817663 0.3072460197 0.303943671 -0.5214147909
2.485e+10 0.2989396141 -0.5212731428 0.656996961 0.3057770821 0.6569976641 0.3057756881 0.3014286574 -0.5203969307
2.49e+10 0.2964216336 -0.5202348179 0.6594036562 0.3042911864 0.6594042591 0.3042898918 0.2989222491 -0.5193640028
2.495e+10 0.2939122566 -0.5191815239 0.6618008498 0.3027900236 0.6618015528 0.3027886296 0.2964245446 -0.5183161048
2.5e+10 0.2914117803 -0.5181132583 0.6641885449 0.3012733924 0.6641892476 0.3012720982 0.2939357411 -0.5172532347
2.505e+10 0.2889201033 -0.5170300197 0.6665666419 0.2997416905 0.6665672453 0.2997402963 0.2914557381 -0.5161755905
2.51e+10 0.2864375233 -0.5159319054 0.6689349441 0.2981948156 0.6689355475 0.2981934213 0.2889848326 -0.51508307
2.515e+10 0.2839640393 -0.5148191129 0.6712932524 0.2966329651 0.6712939557 0.2966315713 0.2865229238 -0.5139758712
2.52e+10 0.2814996497 -0.5136916406 0.6736416684 0.2950562376 0.6736422715 0.2950549431 0.2840703098 -0.5128540911
2.525e+10 0.2790447522 -0.5125495856 0.6759799938 0.2934648298 0.6759805973 0.2934634356 0.2816269888 -0.5117177284
2.53e+10 0.2765991455 -0.5113929463 0.6783080306 0.2918587399 0.6783086338 0.2918574454 0.2791931594 -0.5105669797
2.535e+10 0.2741630283 -0.5102219197 0.6806256797 0.2902382651 0.6806262833 0.2902368709 0.2767687202 -0.5094018435
2.54e+10 0.2717364993 -0.5090366043 0.6829330428 0.2886033042 0.6829336461 0.2886020098 0.2743538701 -0.5082225178
2.545e+10 0.2693195569 -0.5078369975 0.6852298213 0.2869542538 0.6852304249 0.2869528596 0.2719487068 -0.5070288997
2.55e+10 0.266912499 -0.5066231966 0.687516017 0.285291012 0.6875166207 0.2852896179 0.2695532294 -0.5058211876
2.555e+10 0.2645152253 -0.5053953997 0.6897915307 0.2836137764 0.6897921344 0.2836123823 0.2671676369 -0.5045995782
2.56e+10 0.2621278344 -0.5041536046 0.6920563637 0.2819227449 0.6920568673 0.2819214501 0.2647920274 -0.5033639698
2.565e+10 0.259750425 -0.5028980087 0.6943103173 0.2802180149 0.6943108209 0.2802167201 0.2624263003 -0.5021145605
2.57e+10 0.2573830954 -0.5016285104 0.6965533927 0.2784997838 0.6965539964 0.2784983896 0.2600707539 -0.5008514474
2.575e+10 0.2550259451 -0.5003454063 0.6987855908 0.2767680502 0.6987860945 0.2767667554 0.257725188 -0.4995747288
2.58e+10 0.2526789727 -0.4990486951 0.7010067132 0.2750231105 0.701007317 0.2750217164 0.2553899999 -0.4982844017
2.585e+10 0.250342277 -0.4977384743 0.7032168608 0.273264864 0.7032174643 0.2732635696 0.2530649898 -0.4969806648
2.59e+10 0.2480158569 -0.4964147424 0.705416034 0.2714937077 0.7054165381 0.2714923133 0.2507503564 -0.4956636153
2.595e+10 0.2456999119 -0.4950777956 0.7076039346 0.2697096387 0.7076045385 0.2697082446 0.2484460985 -0.4943332511
2.6e+10 0.2433944403 -0.493727533 0.7097808633 0.2679127562 0.7097813675 0.2679113617 0.2461523149 -0.4929896704
2.605e+10 0.2410994418 -0.492364252 0.711946521 0.266103157 0.711947125 0.2661017629 0.2438690051 -0.4916330708
2.61e+10 0.2388150151 -0.4909878507 0.7141011084 0.2642810394 0.7141016123 0.2642797447 0.2415963682 -0.4902635495
2.615e+10 0.2365412592 -0.4895985264 0.7162444267 0.2624465007 0.7162449306 0.262445206 0.2393343028 -0.4888811052
2.62e+10 0.2342781732 -0.4881962777 0.7183765765 0.2605997392 0.7183770809 0.2605983447 0.2370829081 -0.487485736
2.625e+10 0.2320257565 -0.4867813025 0.720497559 0.2587406531 0.7204980633 0.2587392586 0.2348422833 -0.4860777393
2.63e+10 0.2297842072 -0.4853534982 0.7226072752 0.2568694399 0.7226077792 0.2568681452 0.2326123279 -0.4846571132
2.635e+10 0.227553426 -0.483913263 0.7247058251 0.2549862974 0.7247063295 0.254984903 0.2303933399 -0.4832238555
2.64e+10 0.2253334112 -0.4824603956 0.7267932098 0.2530912243 0.7267937142 0.2530898299 0.2281851201 -0.4817782644
2.645e+10 0.2231244612 -0.4809950925 0.7288693314 0.2511842178 0.7288698354 0.2511829231 0.2259878656 -0.4803201378
2.65e+10 0.2209263758 -0.479517353 0.730934289 0.2492655763 0.7309347935 0.2492641819 0.2238014772 -0.4788497739
2.655e+10 0.2187392544 -0.4780273747 0.7329880843 0.2473351978 0.7329885889 0.2473338034 0.2216261531 -0.4773671704
2.66e+10 0.2165631954 -0.4765251554 0.7350306185 0.24539318 0.7350312228 0.245391786 0.2194618925 -0.4758724251
2.665e+10 0.2143981982 -0.4750107932 0.7370620918 0.2434396218 0.7370625964 0.2434382274 0.2173085946 -0.474365537
2.67e+10 0.2122443615 -0.4734842863 0.7390824058 0.2414745207 0.73908291 0.241473226 0.2151664583 -0.4728466036
2.675e+10 0.2101015852 -0.471945833 0.7410915603 0.2394980744 0.7410921646 0.2394966805 0.2130354832 -0.4713158226
2.68e+10 0.2079699677 -0.470395431 0.7430896569 0.237510182 0.7430901615 0.2375087876 0.2109156676 -0.4697730925
2.685e+10 0.2058496079 -0.4688330784 0.7450765967 0.2355109409 0.7450771014 0.2355095465 0.208807011 -0.4682185116
2.69e+10 0.2037405047 -0.4672589735 0.7470524808 0.2335002496 0.7470529855 0.2334988552 0.2067097115 -0.4666521775
2.695e+10 0.2016427574 -0.4656730135 0.7490172094 0.2314784054 0.7490177142 0.231477011 0.2046235699 -0.4650741884
2.7e+10 0.1995561652 -0.4640753975 0.7509707846 0.2294452069 0.7509712893 0.2294438126 0.2025488829 -0.4634844418
2.705e+10 0.197481126 -0.4624661224 0.7529133064 0.227400752 0.7529138116 0.2273992579 0.200485551 -0.4618832362
2.71e+10 0.19541734 -0.4608452876 0.7548447765 0.2253449397 0.7548452813 0.2253435454 0.1984335728 -0.46027047
2.715e+10 0.1933651048 -0.4592127897 0.7567650959 0.2232779668 0.756765501 0.223276572 0.1963930467 -0.4586461405
2.72e+10 0.1913243199 -0.4575688274 0.7586742655 0.2211997315 0.758674671 0.221198237 0.1943640718 -0.4570104455
2.725e+10 0.189295084 -0.4559133984 0.7605722872 0.2191101324 0.7605726923 0.2191087377 0.1923465469 -0.4553632839
2.73e+10 0.1872773962 -0.4542466004 0.7624590611 0.2170093664 0.7624595664 0.2170078723 0.190340671 -0.4537048523
2.735e+10 0.1852713546 -0.4525683315 0.7643346895 0.2148972325 0.7643351944 0.2148958382 0.1883464425 -0.4520350493
2.74e+10 0.1832769587 -0.4508787894 0.7661990725 0.2127738281 0.7661995775 0.2127724338 0.1863638608 -0.4503540724
2.745e+10 0.1812944066 -0.4491779711 0.7680522119 0.2106391508 0.7680526176 0.2106376563 0.184393024 -0.4486618194
2.75e+10 0.1793235974 -0.4474658754 0.7698940092 0.2084930989 0.7698944149 0.2084916043 0.1824339313 -0.4469583885
2.755e+10 0.17736453 -0.4457425996 0.7717243655 0.2063356698 0.7717247713 0.2063341753 0.1804866809 -0.4452437767
2.76e+10 0.1754175025 -0.4440081406 0.773543282 0.2041668608 0.7735436878 0.2041653662 0.1785513723 -0.4435181813
2.765e+10 0.1734824143 -0.4422625963 0.77535066 0.2019866695 0.7753510658 0.201985175 0.1766281035 -0.4417814998
2.77e+10 0.1715593632 -0.4405058643 0.7771464015 0.1997949942 0.7771468074 0.1997934996 0.1747167733 -0.4400337307
2.775e+10 0.1696483489 -0.4387381421 0.7789305065 0.1975919318 0.7789308131 0.1975903371 0.1728175809 -0.4382750702
2.78e+10 0.1677495699 -0.4369594263 0.7807027772 0.1953773797 0.7807030839 0.1953757849 0.1709305248 -0.4365054164
2.785e+10 0.1658630243 -0.4351697146 0.7824631152 0.1931512353 0.7824634214 0.1931497403 0.1690557039 -0.4347249659
2.79e+10 0.1639888116 -0.4333691038 0.784211421 0.1909136951 0.7842117277 0.1909121003 0.1671933164 -0.4329336155
2.795e+10 0.1621270303 -0.4315575913 0.7859476963 0.1886645578 0.7859479028 0.1886630624 0.165343162 -0.4311314639
2.8e+10 0.1602776794 -0.4297352741 0.7876716424 0.1864039191 0.7876718489 0.1864024236 0.1635056384 -0.4293185064
2.805e+10 0.1584409574 -0.4279021491 0.7893832601 0.1841317767 0.7893834671 0.1841301815 0.1616805455 -0.4274948415
2.81e+10 0.1566168638 -0.4260583125 0.7910822508 0.1818481266 0.7910824578 0.1818465314 0.159868182 -0.425660564
2.815e+10 0.1548054963 -0.4242036623 0.7927686162 0.1795528669 0.7927688233 0.1795512716 0.1580685464 -0.4238156722
2.82e+10 0.1530070556 -0.4223384936 0.7944421562 0.1772461932 0.7944423633 0.1772445979 0.1562817387 -0.4219602623
2.825e+10 0.1512214395 -0.4204627046 0.7961027732 0.1749279035 0.7961028806 0.1749263078 0.1545078561 -0.4200942313
2.83e+10 0.1494489478 -0.4185763905 0.7977501669 0.1725982927 0.7977502743 0.1725966969 0.1527470001 -0.418217875
2.835e+10 0.1476895793 -0.4166796485 0.799384339 0.1702571588 0.7993843467 0.1702555625 0.150999268 -0.4163310906
2.84e+10 0.1459434335 -0.4147724746 0.8010048904 0.1679046968 0.8010048981 0.1679031005 0.14926476 -0.4144339739
2.845e+10 0.1442106092 -0.4128549659 0.8026119217 0.1655408048 0.8026118297 0.1655392081 0.1475435749 -0.4125266219
2.85e+10 0.1424912069 -0.4109272179 0.8042050334 0.1631656779 0.804204941 0.1631641809 0.1458357132 -0.4106091308
2.855e+10 0.1407853254 -0.4089893268 0.8057840262 0.1607794118 0.8057839342 0.160777815 0.1441414731 -0.4086814958
2.86e+10 0.139093165 -0.4070413887 0.8073489005 0.1583820037 0.807348808 0.1583805067 0.1424608552 -0.4067438143
2.865e+10 0.1374147242 -0.4050833007 0.8088994562 0.1559736498 0.8088992646 0.1559720525 0.1407939592 -0.404796282
2.87e+10 0.1357502041 -0.403115457 0.8104352949 0.1535542451 0.8104351027 0.1535527476 0.1391408845 -0.4028388946
2.875e+10 0.1340995039 -0.4011376561 0.8119564158 0.1511240869 0.8119562237 0.1511225893 0.1375017314 -0.4008717488
2.88e+10 0.1324630239 -0.3991501915 0.8134626187 0.1486832699 0.8134623268 0.1486817719 0.1358767001 -0.3988950396
2.885e+10 0.1308406653 -0.3971531608 0.8149537036 0.1462319908 0.8149534117 0.1462304927 0.1342657906 -0.3969086644
2.89e+10 0.1292325267 -0.3951465597 0.8164294714 0.1437701458 0.8164290793 0.143768747 0.1326691029 -0.3949129182
2.895e+10 0.1276388097 -0.3931305837 0.8178897201 0.1412982298 0.8178893285 0.1412967312 0.1310867386 -0.3929078973
2.9e+10 0.1260596137 -0.3911052291 0.8193343509 0.1388161393 0.8193339594 0.1388146407 0.1295188966 -0.3908935976
2.905e+10 0.1244949415 -0.3890708914 0.8207631619 0.1363241702 0.8207626701 0.1363227708 0.1279655789 -0.3888702148
2.91e+10 0.122944892 -0.3870273675 0.822175953 0.1338225182 0.8221754612 0.1338211188 0.1264268861 -0.3868379452
2.915e+10 0.1214096671 -0.3849750526 0.8235727232 0.1313112798 0.8235721312 0.1313099797 0.1249029187 -0.3847967852
2.92e+10 0.1198892678 -0.382913943 0.8249531712 0.12879085 0.8249525791 0.1287895498 0.1233937784 -0.3827469304
2.925e+10 0.1183838946 -0.3808441345 0.8263171962 0.1262613248 0.8263166042 0.1262600246 0.1218995662 -0.3806885766
2.93e+10 0.1168934499 -0.3787659234 0.8276646967 0.123722901 0.827664005 0.1237216002 0.1204202834 -0.3786218203
2.935e+10 0.1154181343 -0.3766793063 0.8289955719 0.1211758741 0.8289948802 0.1211745733 0.1189561307 -0.3765466579
2.94e+10 0.1139579504 -0.3745845787 0.8303096196 0.1186204399 0.8303089273 0.118619239 0.1175071111 -0.3744634848
2.945e+10 0.1125129986 -0.3724817378 0.8316069384 0.1160567961 0.8316061459 0.1160556943 0.1160732258 -0.3723723986
2.95e+10 0.1110833818 -0.3703710791 0.8328872265 0.1134853368 0.8328865337 0.1134842355 0.1146546759 -0.3702733948
2.955e+10 0.1096692014 -0.3682526992 0.8341505816 0.1109062595 0.8341498889 0.1109051582 0.113251464 -0.3681667701
2.96e+10 0.1082703593 -0.3661266953 0.8353969025 0.108319761 0.8353961094 0.108318759 0.1118635919 -0.3660526213
2.965e+10 0.1068869585 -0.3639933638 0.8366261858 0.1057262375 0.836625293 0.1057252349 0.1104911619 -0.363931145
2.97e+10 0.1055191003 -0.3618528013 0.8378382306 0.1031258149 0.8378374373 0.1031248627 0.1091341763 -0.361802538
2.975e+10 0.1041667869 -0.3597051048 0.839033234 0.1005188209 0.8390323407 0.1005179181 0.1077927368 -0.3596668969
2.98e+10 0.1028300208 -0.3575504718 0.8402110938 0.09790552207 0.8402102003 0.09790465911 0.1064668462 -0.3575244192
2.985e+10 0.1015089051 -0.3553891983 0.8413718071 0.09528618506 0.8413709133 0.09528537198 0.105156507 -0.3553753016
2.99e+10 0.1002033613 -0.3532212829 0.8425154721 0.09266106778 0.8425145781 0.09266029458 0.1038617207 -0.3532195424
2.995e+10 0.09891345278 -0.3510470222 0.8436420854 0.09003043677 0.8436411911 0.09002971345 0.102582591 -0.3510575377
3e+10 0.09763917097 -0.3488664141 0.8447517451 0.08739454008 0.8447507508 0.0873938661 0.1013190197 -0.3488892858
