! openEMS extraction of the IHP SG13G2 inductor PCell, geometry p13
! port parasitic de-embedded by cascading a negative series L per port
! L_port = [1.875 1.875] pH (Terman flat-ribbon, from port_information.json)
# Hz S RI R 50
0 0.06031833 0 0.9327392 0 0.9329829 0 0.06048209 0
50000000 0.06052689353 0.01355861987 0.9325240063 -0.01421533238 0.9327669066 -0.01423447969 0.06069000372 0.01354406167
100000000 0.06115221569 0.02710122143 0.9318787236 -0.02841389637 0.9321194246 -0.02845207107 0.06131338644 0.02707221498
150000000 0.06219313114 0.04061186612 0.9308047474 -0.04257896334 0.9310415496 -0.04263589557 0.0623510828 0.0405686013
200000000 0.06364770761 0.05407466486 0.9293039698 -0.05669389412 0.9295354738 -0.0567692041 0.06380119053 0.05401745148
250000000 0.06551326585 0.06747387779 0.9273793803 -0.07074221879 0.9276039863 -0.0708354068 0.06566104033 0.06740311564
300000000 0.06778635952 0.08079395405 0.925034565 -0.08470762642 0.9252509736 -0.0848180628 0.06792722585 0.08071013285
350000000 0.07046281513 0.09401955152 0.9222740077 -0.09857407484 0.9224808191 -0.09870102998 0.07059563354 0.09392324095
400000000 0.07353773185 0.1071355766 0.9191028892 -0.1123257904 0.9192988036 -0.1124683747 0.07366141254 0.1070274863
450000000 0.07700552146 0.1201272041 0.9155271877 -0.1259473178 0.9157110055 -0.1261046018 0.07711901456 0.1200081137
500000000 0.08085988807 0.1329801767 0.9115535793 -0.1394234898 0.9117241005 -0.1395945741 0.08096222369 0.1328507858
550000000 0.08509390807 0.1456802254 0.9071893376 -0.1527398373 0.9073456623 -0.1529234222 0.08518416623 0.1455414335
600000000 0.08970000984 0.1582137786 0.9024427343 -0.1658819887 0.9025837625 -0.1660767749 0.0897773705 0.1580666852
650000000 0.09467001358 0.1705675625 0.8973222393 -0.1788361703 0.897447271 -0.1790410583 0.09473371665 0.1704131673
700000000 0.09999516109 0.182729001 0.8918372208 -0.1915891057 0.8919455558 -0.1918027961 0.1000445864 0.1825684035
750000000 0.1056662356 0.1946858151 0.8859975458 -0.2041283162 0.8860884838 -0.2043492095 0.105700663 0.1945200149
800000000 0.1116733013 0.2064263234 0.87981368 -0.2164415203 0.8798867208 -0.2166683169 0.1116924305 0.20625652
850000000 0.1180061937 0.2179392415 0.8732963881 -0.2285172337 0.8733512313 -0.2287483341 0.1180095244 0.2177667345
900000000 0.1246541487 0.2292142825 0.8664570342 -0.2403444695 0.8664934794 -0.2405785742 0.1246413804 0.2290400717
950000000 0.1316061026 0.2402412567 0.859307482 -0.2519131381 0.8593253288 -0.2521486473 0.1315771349 0.2400667417
1000000000 0.1388505921 0.2510109716 0.851859895 -0.2632135469 0.8518590427 -0.263448961 0.1388051246 0.2508373521
1050000000 0.1463757539 0.2615147319 0.8441266365 -0.2742368009 0.8441073846 -0.2744706201 0.1463139861 0.2613431078
1100000000 0.1541695244 0.2717443398 0.83612047 -0.2849747021 0.8360830179 -0.2852054265 0.1540914557 0.2715761108
1150000000 0.1622196396 0.2816924946 0.8278545596 -0.29541955 0.8277992067 -0.2956457799 0.1621253696 0.2815286607
1200000000 0.1705134349 0.2913522933 0.8193419699 -0.3055647418 0.8192693156 -0.305784977 0.1704033629 0.2911941545
1250000000 0.1790383449 0.3007177305 0.8105962664 -0.3154039719 0.81050681 -0.3156170124 0.1789127704 0.3005663867
1300000000 0.1877815033 0.3097832982 0.8016308154 -0.3249317326 0.8015253562 -0.3251362783 0.1876408256 0.3096399496
1350000000 0.1967299424 0.3185441864 0.7924592844 -0.334143514 0.7923385219 -0.3343382646 0.196574761 0.3184098331
1400000000 0.2058706935 0.3269962831 0.7830952423 -0.343035104 0.7829601759 -0.3432189593 0.2057016078 0.3268719254
1450000000 0.2151908862 0.3351360742 0.7735524593 -0.3516031887 0.7734039884 -0.3517750482 0.2150083957 0.3350227123
1500000000 0.2246773488 0.342960744 0.7638445072 -0.3598450523 0.7636837312 -0.3600039156 0.224482353 0.3428590782
1550000000 0.2343172078 0.3504678749 0.7539848593 -0.3677587775 0.7538128779 -0.3679038442 0.2341105062 0.3503790058
1600000000 0.2440977881 0.3576560483 0.7439869908 -0.3753428455 0.7438050034 -0.375473315 0.2438801803 0.3575804762
1650000000 0.2540062126 0.364524144 0.7338640785 -0.3825966364 0.7336733849 -0.382711808 0.2537785982 0.3644626693
1700000000 0.2640300028 0.3710716408 0.7236294012 -0.3895200287 0.723431201 -0.3896192019 0.2637932814 0.371024764
1750000000 0.2741566777 0.3772987164 0.7132957395 -0.3961133005 0.7130914325 -0.3961962745 0.2739119491 0.3772670382
1800000000 0.2843741549 0.3832059479 0.7028757759 -0.4023777287 0.702666662 -0.4024440029 0.2841223188 0.3831899688
1850000000 0.2946705499 0.3887946117 0.6923819948 -0.4083147898 0.6921693739 -0.4083640635 0.2944125061 0.3887946324
1900000000 0.3050339762 0.3940663839 0.6818262825 -0.4139266599 0.6816117546 -0.4139588323 0.3047709247 0.3940827049
1950000000 0.3154530457 0.39902334 0.6712207271 -0.4192158145 0.6710054924 -0.4192309849 0.3151860864 0.399056062
2000000000 0.3259167681 0.4036681555 0.6605766189 -0.424185429 0.6603620775 -0.4241836968 0.3256468011 0.4037174791
2050000000 0.3364142516 0.4080038059 0.6499051495 -0.428838979 0.6496926016 -0.4288205435 0.3361423769 0.4080697318
2100000000 0.3469351025 0.4120337668 0.6392170126 -0.43318054 0.6390078586 -0.4331456005 0.3466623203 0.4121161955
2150000000 0.3574690254 0.4157619139 0.6285227035 -0.4372142877 0.6283181438 -0.4371632435 0.3571963358 0.415860746
2200000000 0.3680063233 0.4191922234 0.6178321192 -0.4409448982 0.6176333543 -0.4408784489 0.3677347265 0.4193073595
2250000000 0.3785376975 0.4223294719 0.6071547582 -0.4443774481 0.6069630885 -0.444296093 0.378268094 0.4224604124
2300000000 0.3890539481 0.4251782364 0.5965000205 -0.4475173144 0.5963164465 -0.4474217531 0.3887873382 0.4253247819
2350000000 0.3995464736 0.4277436947 0.5858764074 -0.4503700747 0.5857020299 -0.4502611068 0.3992836576 0.4279053457
2400000000 0.4100070713 0.4300311253 0.5752924217 -0.4529414074 0.5751281412 -0.4528199327 0.4097488496 0.4302074821
2450000000 0.4204277371 0.4320461072 0.5647558673 -0.4552375918 0.5646026846 -0.4551044098 0.4201750103 0.4322365702
2500000000 0.4308012661 0.4337943207 0.5542742492 -0.4572647076 0.5541328649 -0.4571209182 0.4305546347 0.4339983902
2550000000 0.4411203522 0.4352816464 0.5438545735 -0.4590292357 0.5437257883 -0.4588758388 0.4408804166 0.4354987227
2600000000 0.4513782882 0.4365142662 0.5335035472 -0.4605376578 0.5333879619 -0.4603757533 0.451145849 0.4367435495
2650000000 0.4615689665 0.4374982629 0.5232271782 -0.4617967566 0.5231253935 -0.4616274446 0.4613444241 0.4377391533
2700000000 0.4716864781 0.4382400202 0.5130314752 -0.4628132157 0.5129437917 -0.4626376962 0.4714702333 0.4384917177
2750000000 0.4817251141 0.4387457225 0.5029216473 -0.4635937196 0.5028484659 -0.4634131928 0.4815176672 0.4390075273
2800000000 0.4916798643 0.4390220557 0.4929027045 -0.4641453539 0.4928443258 -0.46396092 0.4914816161 0.4392930677
2850000000 0.5015459186 0.4390752061 0.4829792572 -0.464474805 0.4829357818 -0.4642877644 0.5013570694 0.4393547254
2900000000 0.5113189661 0.4389118616 0.4731554161 -0.4645889606 0.4731269446 -0.4644005136 0.5111397165 0.4391990879
2950000000 0.5209947958 0.4385384105 0.4634350924 -0.464494709 0.4634214255 -0.4643060561 0.5208252462 0.4388325437
3000000000 0.5305697961 0.4379613423 0.4538216976 -0.4641989398 0.4538228356 -0.4640111812 0.5304101471 0.4382615823
3050000000 0.5400405557 0.4371870474 0.4443182431 -0.4637082431 0.4443339867 -0.4635225795 0.5398907076 0.437492694
3100000000 0.5494040627 0.4362220172 0.4349277409 -0.4630294102 0.4349575904 -0.4628469422 0.549263916 0.4365321699
3150000000 0.5586575055 0.4350724437 0.4256523026 -0.4621690333 0.4256960584 -0.4619908615 0.5585270605 0.4353864024
3200000000 0.5677984721 0.43374472 0.4164943403 -0.4611335053 0.4165514027 -0.4609607302 0.5676775292 0.4340617843
3250000000 0.5768248508 0.4322449399 0.4074555656 -0.4599294201 0.4075253348 -0.4597628423 0.5767130103 0.4325643094
3300000000 0.5857346298 0.4305791979 0.3985375905 -0.458562872 0.3986194666 -0.4584034923 0.585631792 0.4309002723
3350000000 0.5945262977 0.4287533894 0.3897417265 -0.4570400565 0.3898350097 -0.4568887755 0.5944320627 0.4290755683
3400000000 0.6031984429 0.4267735104 0.3810689852 -0.4553668695 0.3811728755 -0.4552245879 0.6031123109 0.4270960933
3450000000 0.6117498541 0.4246450575 0.3725200779 -0.4535494078 0.3726338753 -0.4534167261 0.6116715253 0.4249677442
3500000000 0.6201796202 0.4223739282 0.3640957157 -0.4515930686 0.3642185202 -0.4514707875 0.6201085947 0.4226959181
3550000000 0.6284871306 0.4199653202 0.3557963095 -0.4495036497 0.3559271209 -0.44939227 0.6284229083 0.420286313
3600000000 0.6366716744 0.417424732 0.3476219701 -0.4472863498 0.3477598882 -0.4471863719 0.6366137554 0.4177443273
3650000000 0.6447330414 0.4147572625 0.3395728077 -0.4449464676 0.3397168322 -0.4448582922 0.6446809258 0.41507496
3700000000 0.6526711216 0.4119679113 0.3316485325 -0.4424889027 0.3317977631 -0.4424129302 0.6526240091 0.4122836104
3750000000 0.6604857052 0.4090615781 0.3238489543 -0.4399186549 0.3240022907 -0.439855186 0.6604431958 0.4093749786
3800000000 0.6681769827 0.4060430633 0.3161735825 -0.4372404247 0.3163300243 -0.4371895597 0.6681384764 0.4063538649
3850000000 0.6757453451 0.4029168676 0.3086218264 -0.4344587126 0.3087803731 -0.4344204521 0.6757101416 0.4032249698
3900000000 0.6831909834 0.3996873918 0.3011930948 -0.4315777198 0.301352746 -0.431552264 0.6831584826 0.3999927945
3950000000 0.6905144891 0.3963590375 0.2938866963 -0.4286018475 0.2940463515 -0.4285890968 0.6904841908 0.3966616404
4000000000 0.697716454 0.3929358061 0.2867016392 -0.4255349974 0.2868603979 -0.4255347521 0.697687558 0.3932356089
4050000000 0.7047975703 0.3894216997 0.2796370313 -0.4223810716 0.279793893 -0.4223931319 0.7047695763 0.3897188022
4100000000 0.7117584302 0.3858205202 0.2726918804 -0.419143672 0.2728458444 -0.4191677381 0.711730838 0.3861150223
4150000000 0.7186000265 0.38213597 0.2658650936 -0.4158264011 0.2660154597 -0.4158621731 0.7185721358 0.3824280715
4200000000 0.7253232522 0.3783715517 0.2591556782 -0.4124325615 0.2593014456 -0.4124796395 0.7252945627 0.3786615526
4250000000 0.7319290005 0.3745307681 0.2525625408 -0.4089655559 0.2527027089 -0.40902334 0.731899012 0.3748187681
4300000000 0.738418165 0.3706167219 0.2460842878 -0.4054282872 0.2462183561 -0.4054962773 0.7383863772 0.370903121
4350000000 0.7447919395 0.3666327161 0.2397199254 -0.4018237586 0.2398470935 -0.4019013545 0.7447578522 0.3669178144
4400000000 0.7510512181 0.362581554 0.2334682596 -0.398154773 0.2335878269 -0.3982413747 0.7510145311 0.3628657513
4450000000 0.7571971952 0.3584662387 0.2273279959 -0.394424134 0.2274393619 -0.3945189413 0.7571574081 0.3587499352
4500000000 0.7632308654 0.3542895736 0.2212980398 -0.3906342447 0.221400504 -0.3907365574 0.763187678 0.3545732693
4550000000 0.7691534234 0.3500540621 0.2153769964 -0.3867876087 0.2154703584 -0.3868966266 0.7691065356 0.3503381571
4600000000 0.7749659644 0.3457624078 0.2095637705 -0.3828865296 0.2096475299 -0.3830015523 0.7749150759 0.3460474022
4650000000 0.7806695838 0.3414169143 0.2038572669 -0.378933311 0.2039309234 -0.3790535383 0.7806144944 0.3417033082
4700000000 0.7862653768 0.3370199852 0.1982561901 -0.3749300565 0.1983196433 -0.375054588 0.7862058864 0.3373082787
4750000000 0.7917545395 0.3325738241 0.1927594443 -0.3708788699 0.1928123938 -0.3710067051 0.7916905479 0.3328645174
4800000000 0.7971381676 0.328080635 0.1873659334 -0.3667815549 0.187408179 -0.3669119936 0.7970695748 0.3283743283
4850000000 0.8024173573 0.3235424215 0.1820743614 -0.3626400154 0.1821059029 -0.3627722571 0.8023440632 0.3238396149
4900000000 0.807593205 0.3189611876 0.1768839319 -0.3584561551 0.1769046691 -0.3585892996 0.8075151093 0.3192624812
4950000000 0.812666707 0.314338937 0.1717933483 -0.3542316782 0.1718034811 -0.3543648248 0.8125840099 0.3146447311
5000000000 0.8176390602 0.3096772737 0.1668016139 -0.3499680883 0.1668012422 -0.3501004366 0.8175517616 0.3099882684
5050000000 0.8225111614 0.3049782016 0.161907932 -0.3456671894 0.1618971556 -0.3457979392 0.8224194612 0.3052948972
5100000000 0.8272841075 0.3002434247 0.1571111052 -0.3413303856 0.1570902243 -0.3414587362 0.8271881059 0.3005662213
5150000000 0.831958996 0.2954744469 0.1524102365 -0.3369591807 0.152379551 -0.3370844318 0.8318588929 0.2958038447
5200000000 0.8365366239 0.2906728723 0.1478044284 -0.3325551788 0.1477643384 -0.33267653 0.8364327195 0.2910094714
5250000000 0.841018189 0.2858404049 0.1432928834 -0.3281195838 0.143243689 -0.3282364348 0.8409105833 0.2861845054
5300000000 0.845404489 0.2809783486 0.1388746038 -0.3236537997 0.138816805 -0.3237654501 0.8452935821 0.2813305508
5350000000 0.8496964214 0.2760884075 0.1345487917 -0.3191592307 0.1344829888 -0.31926508 0.8495827135 0.2764489115
5400000000 0.8538950845 0.2711716857 0.1303147491 -0.3146371807 0.1302413422 -0.3147366286 0.8537786757 0.2715409915
5450000000 0.8580011763 0.2662297871 0.1261714778 -0.3100888537 0.1260911672 -0.3101815 0.8578826668 0.266608195
5500000000 0.8620157952 0.261264016 0.1221183796 -0.3055155538 0.1220317655 -0.3056007982 0.8618954851 0.2616518258
5550000000 0.8659396394 0.2562756763 0.118154656 -0.300918485 0.1180623386 -0.3009960272 0.8658179289 0.2566731882
5600000000 0.8697736077 0.251265972 0.1142796084 -0.2962988513 0.114182188 -0.2963682911 0.869650997 0.2516733861
5650000000 0.8735184986 0.2462362072 0.110492438 -0.2916578568 0.110390715 -0.291718994 0.873395588 0.2466537235
5700000000 0.8771752111 0.241187586 0.1067925462 -0.2869967055 0.1066872207 -0.2870491398 0.8770523007 0.2416155045
5750000000 0.8807445442 0.2361213124 0.1031791337 -0.2823165013 0.1030709061 -0.2823601328 0.8806221342 0.236559633
5800000000 0.8842271969 0.2310385904 0.09965170148 -0.2776183483 0.09954121206 -0.2776530767 0.8841058875 0.2314874131
5850000000 0.8876240685 0.2259405241 0.09620943032 -0.2729035504 0.09609745941 -0.2729292758 0.88750426 0.2264000488
5900000000 0.8909359585 0.2208283174 0.09285173073 -0.2681730117 0.09273897863 -0.2681897339 0.8908181511 0.2212984439
5950000000 0.8941635664 0.2157029742 0.08957793323 -0.2634280359 0.08946511023 -0.263435755 0.8940482602 0.2161838026
6000000000 0.8973076918 0.2105657986 0.08638738811 -0.2586695271 0.08627520454 -0.2586685431 0.897195387 0.2110570286
6050000000 0.9003691346 0.2054176944 0.08327946559 -0.2538987892 0.08316858171 -0.2538891021 0.9002603314 0.205919426
6100000000 0.9033485946 0.2002596655 0.08025350576 -0.2491168259 0.08014459185 -0.2490986358 0.9032436932 0.2007717985
6150000000 0.9062467719 0.1950930158 0.07730885859 -0.2443247412 0.07720256491 -0.2442982481 0.9061462725 0.1956153499
6200000000 0.9090646668 0.189918549 0.07444488382 -0.2395235387 0.07434181062 -0.2394891428 0.9089689695 0.1904508842
6250000000 0.9118027794 0.184737369 0.07166093124 -0.2347143222 0.07156164874 -0.2346723237 0.9117122843 0.1852795049
6300000000 0.9144620103 0.1795503794 0.06895632038 -0.2298981954 0.06886138879 -0.2298488943 0.9143771176 0.1801021159
6350000000 0.91704306 0.174358684 0.06633040073 -0.225076062 0.06624033025 -0.2250200586 0.9169641698 0.1749198208
6400000000 0.9195466291 0.1691632863 0.06378250165 -0.2202491255 0.06369776244 -0.2201867199 0.9194741415 0.1697333231
6450000000 0.9219736185 0.1639649898 0.06131192235 -0.2154181895 0.06123295456 -0.2153499818 0.9219077334 0.1645437264
6500000000 0.924324729 0.1587646981 0.05891798196 -0.2105844574 0.0588451757 -0.2105108479 0.9242658466 0.1593519342
6550000000 0.9266006616 0.1535635145 0.05659997954 -0.2057488327 0.05653367492 -0.2056704215 0.9265489819 0.15415875
6600000000 0.9288023174 0.1483622426 0.05435720395 -0.2009123186 0.05429769105 -0.2008297061 0.9287581405 0.1489650771
6650000000 0.9309302977 0.1431616855 0.05218892408 -0.1960759185 0.05213647296 -0.1959896048 0.9308938234 0.1437719187
6700000000 0.9329855036 0.1379627464 0.05009440859 -0.1912404356 0.05004921928 -0.1911511209 0.9329569321 0.1385799781
6750000000 0.9349687367 0.1327663286 0.04807290612 -0.186406973 0.04803513864 -0.1863151575 0.9349481678 0.1333900585
6800000000 0.9368807983 0.1275732351 0.04612366523 -0.1815763338 0.04609342957 -0.1814827177 0.936868232 0.1282031629
6850000000 0.9387222901 0.1223842688 0.04424591435 -0.176749421 0.04422327049 -0.1766545044 0.9387180264 0.1230198942
6900000000 0.9404942136 0.1172001327 0.04243887187 -0.1719271373 0.04242383976 -0.1718316205 0.9404981524 0.1178411555
6950000000 0.9421973707 0.1120217296 0.04070174606 -0.1671103858 0.04069428565 -0.1670148689 0.9422095119 0.1126676495
7000000000 0.9438323631 0.1068496621 0.03903374517 -0.162299869 0.03903377639 -0.1622049522 0.9438528065 0.107500179
7050000000 0.9454001927 0.1016847331 0.03743404732 -0.1574965897 0.03744146007 -0.1574026731 0.9454289382 0.1023394466
7100000000 0.9469015614 0.09652761503 0.03590183064 -0.1527011504 0.03591645482 -0.1526089342 0.9469384089 0.09718612498
7150000000 0.9483373712 0.09137897036 0.03443628309 -0.1479143536 0.03445789861 -0.1478244378 0.9483823206 0.09204094653
7200000000 0.9497083241 0.08623947147 0.03303655269 -0.1431369016 0.03306491943 -0.1430497864 0.9497611752 0.08690456364
7250000000 0.9510153223 0.08110975069 0.03170180733 -0.1383695968 0.03173662516 -0.1382857822 0.9510759749 0.08177761866
7300000000 0.9522590679 0.07599040021 0.03043119489 -0.1336131414 0.0304721537 -0.1335330275 0.9523274218 0.07666074381
7350000000 0.953440563 0.07088202215 0.02922385317 -0.1288680375 0.02927059282 -0.1287921243 0.9535163182 0.07155454119
7400000000 0.95456041 0.06578515855 0.02807893998 -0.1241350871 0.02813108035 -0.1240637747 0.9546434662 0.06645958287
7450000000 0.955619611 0.06070036135 0.02699559304 -0.1194147922 0.02705271399 -0.1193483806 0.955709568 0.06137643077
7500000000 0.9566188684 0.0556281424 0.02597294005 -0.1147077546 0.02603460147 -0.1146466438 0.9567156261 0.0563056268
7550000000 0.9575589845 0.05056898348 0.02501012872 -0.1100144761 0.02507588049 -0.1099590662 0.9576622426 0.05124768272
7600000000 0.9584407616 0.04552336627 0.02410630669 -0.1053355585 0.0241756487 -0.1052860492 0.9585502201 0.04620310022
7650000000 0.9592650021 0.04049173236 0.02326059159 -0.1006714032 0.02333305374 -0.1006279947 0.9593803607 0.0411723409
7700000000 0.9600325085 0.03547449328 0.02247215102 -0.09602254185 0.02254721321 -0.09598541401 0.960153567 0.03615584631
7750000000 0.9607440831 0.03047206047 0.02174012259 -0.09138938587 0.02181727473 -0.09135869863 0.9608705414 0.03115405788
7800000000 0.9614005283 0.02548480529 0.02106367386 -0.08677233662 0.02114237589 -0.0867481999 0.9615319862 0.02616737699
7850000000 0.9620025466 0.02051308901 0.02044195242 -0.08217179537 0.02052169427 -0.0821542591 0.962138704 0.02119618491
7900000000 0.9625509405 0.01555724285 0.01987412582 -0.07758809334 0.01995437744 -0.07757717743 0.9626914971 0.01624084286
7950000000 0.9630464122 0.01061758794 0.01935939162 -0.07302156164 0.01943963297 -0.07301726601 0.963191068 0.01130168197
8000000000 0.9634897644 0.005694410328 0.01889691735 -0.06847252135 0.01897663841 -0.0684747659 0.9636382191 0.006379043313
8050000000 0.9638816995 0.0007879865175 0.01848591057 -0.06394123345 0.01856460133 -0.06394992809 0.964033653 0.001473214874
8100000000 0.9642228199 -0.004101426083 0.01812559882 -0.05942795886 0.01820275929 -0.0594429635 0.9643780721 -0.003415521425
8150000000 0.9645141281 -0.008973589095 0.01781517964 -0.05493292844 0.01789034983 -0.05495408298 0.9646722788 -0.008286900722
8200000000 0.9647560265 -0.01382828325 0.01755391059 -0.05045635296 0.01762662053 -0.05048343732 0.9649168756 -0.01314068023
8250000000 0.9649493176 -0.0186653008 0.01734104921 -0.04599843316 0.01741084895 -0.04603119725 0.965112565 -0.01797663423
8300000000 0.9650946039 -0.02348446109 0.01717584305 -0.0415593097 0.01724233264 -0.04159749345 0.9652600494 -0.02279456104
8350000000 0.9651926877 -0.0282855835 0.01705760967 -0.03713915319 0.01712038918 -0.03718245652 0.9653601312 -0.02759425006
8400000000 0.9652440715 -0.03306851747 0.01698561664 -0.03273809417 0.01704432613 -0.03278617703 0.965413213 -0.03237554074
8450000000 0.9652494577 -0.03783310251 0.01695921152 -0.02835623314 0.01701351109 -0.02840874547 0.965420097 -0.03713826259
8500000000 0.9652093488 -0.04257922818 0.01697773189 -0.02399367053 0.01702731163 -0.02405024229 0.9653814858 -0.04188226516
8550000000 0.9651244472 -0.04730675407 0.01704051533 -0.01965050672 0.01708510534 -0.0197107279 0.9652977818 -0.04660741808
8600000000 0.9649952553 -0.05201556986 0.01714694944 -0.01532679206 0.01718630981 -0.01539025263 0.9651696874 -0.051313601
8650000000 0.9648223755 -0.05670557523 0.01729642181 -0.01102259683 0.01733035265 -0.01108886679 0.964997905 -0.05600069364
8700000000 0.9646064103 -0.06137668995 0.01748835004 -0.00673795226 0.01751667146 -0.006806597623 0.9647828369 -0.06066859576
8750000000 0.9643477619 -0.06602881382 0.01772217174 -0.002472908543 0.01774475385 -0.002543473333 0.9645250857 -0.06531722717
8800000000 0.9640470328 -0.0706618767 0.01799733452 0.001772514178 0.01801406744 0.001700484923 0.9642251536 -0.06994649774
8850000000 0.9637047254 -0.07527580846 0.01831330602 0.005998293803 0.01832412985 0.00592526103 0.9638837431 -0.07455632734
8900000000 0.963321342 -0.07987053905 0.01866958386 0.01020442128 0.0186744587 0.01013084393 0.9635011565 -0.07914665595
8950000000 0.9628972851 -0.08444600846 0.01906566568 0.01439087661 0.01906461162 0.01431721959 0.9630779961 -0.08371742355
9000000000 0.9624330569 -0.08900215671 0.01950108911 0.01855768181 0.01949413625 0.01848438504 0.9626147645 -0.08826857016
9050000000 0.9619291599 -0.09353893387 0.01997539181 0.02270480697 0.01996263022 0.02263234033 0.9621118638 -0.09280005588
9100000000 0.9613858965 -0.09805627006 0.02048815142 0.02683228221 0.02046968117 0.0267610656 0.9615696964 -0.09731181082
9150000000 0.9608037688 -0.1025541654 0.0210389256 0.03094008768 0.02101489675 0.03087055097 0.9609888648 -0.1018038151
9200000000 0.9601830795 -0.1070324802 0.021627342 0.0350282336 0.02159791461 0.03496079666 0.9603696712 -0.106276039
9250000000 0.9595244306 -0.1114912146 0.0222529883 0.03909674021 0.0222183824 0.0390317729 0.9597125179 -0.1107283828
9300000000 0.9588279247 -0.1159303688 0.02291551215 0.0431455778 0.02287595776 0.04308347996 0.9590179073 -0.1151608466
9350000000 0.9580941641 -0.1203497434 0.02361456124 0.0471747767 0.02357029837 0.04711588818 0.9582861418 -0.1195734309
9400000000 0.957323451 -0.1247495385 0.02434978323 0.05118430728 0.02430111186 0.05112896793 0.9575175236 -0.123966036
9450000000 0.9565159878 -0.1291293547 0.02512085582 0.05517417997 0.02506808593 0.05512267964 0.956712655 -0.1283386624
9500000000 0.9556722769 -0.1334894923 0.02592747668 0.05914437523 0.02587091822 0.05909700374 0.9558716384 -0.1326912104
9550000000 0.9547926205 -0.137829652 0.0267693235 0.06309486355 0.02670934641 0.06305188076 0.9549948761 -0.1370236807
9600000000 0.9538772211 -0.1421498342 0.02764613396 0.0670256455 0.02758308817 0.06698726124 0.9540827704 -0.1413360737
9650000000 0.9529264808 -0.1464499395 0.02855761577 0.07093668166 0.0284918712 0.0709030858 0.9531356236 -0.1456282901
9700000000 0.9519407021 -0.1507299687 0.02950349663 0.07482792269 0.02943545315 0.07479929506 0.9521536379 -0.1499002305
9750000000 0.9509201871 -0.1549898223 0.03048352425 0.07869934924 0.03041357175 0.07867580973 0.9511372157 -0.1541519954
9800000000 0.9498651383 -0.1592293012 0.03149744634 0.08255089209 0.03142598467 0.08253255056 0.9500866593 -0.1583833858
9850000000 0.9487759578 -0.163448606 0.03254501063 0.08638250198 0.03247245964 0.08636941832 0.9490022708 -0.1625943025
9900000000 0.9476528481 -0.1676473377 0.03362598483 0.09019412975 0.03355275436 0.09018633386 0.9478842526 -0.166784846
9950000000 0.9464961112 -0.1718255971 0.03474014669 0.09398567629 0.03466662655 0.09398318808 0.946732907 -0.1709548175
1e+10 0.9453060496 -0.1759832852 0.03588724397 0.09775708251 0.03581386397 0.09775987191 0.9455485361 -0.1751041177
1.005e+10 0.9440828654 -0.180120103 0.0370670744 0.1015082994 0.03699422434 0.1015162863 0.9443313423 -0.1792328477
1.01e+10 0.9428267609 -0.1842362514 0.03827940576 0.105239058 0.03820748543 0.1052522424 0.9430816277 -0.1833407085
1.015e+10 0.9415382383 -0.1883313315 0.03952402584 0.1089495493 0.03945341505 0.1089676313 0.9417996946 -0.1874278011
1.02e+10 0.9402172998 -0.1924054446 0.04080071243 0.1126393745 0.04073178095 0.112662354 0.9404857451 -0.1914939267
1.025e+10 0.9388643476 -0.1964583917 0.04210925334 0.1163086347 0.04204236093 0.1163363117 0.9391399815 -0.1955389864
1.03e+10 0.9374795838 -0.2004900741 0.04344942641 0.1199570313 0.04338491286 0.1199892059 0.9377627058 -0.1995628815
1.035e+10 0.9360633107 -0.2045002932 0.04482101947 0.1235845653 0.04475920456 0.1236210376 0.9363541204 -0.2035655132
1.04e+10 0.9346157303 -0.2084890501 0.0462238104 0.1271911383 0.04616500391 0.1272316082 0.9349146271 -0.2075467828
1.045e+10 0.9331372447 -0.2124561463 0.04765758711 0.1307764515 0.04760205884 0.1308206193 0.9334443282 -0.2115065917
1.05e+10 0.931627956 -0.2164014833 0.04912211748 0.1343404064 0.0490701372 0.1343880721 0.9319434258 -0.2154448413
1.055e+10 0.9300880664 -0.2203248626 0.05061718943 0.1378830044 0.05056898697 0.1379337683 0.9304123219 -0.2193613331
1.06e+10 0.9285180777 -0.2242261856 0.05214256098 0.1414038472 0.05209834613 0.1414575093 0.9288511186 -0.2232560685
1.065e+10 0.9269180921 -0.2281052539 0.05369801007 0.1449030361 0.05365796267 0.1449591967 0.9272601178 -0.2271287493
1.07e+10 0.9252884114 -0.2319621692 0.05528329476 0.148380173 0.05524758463 0.1484385322 0.9256396215 -0.2309793769
1.075e+10 0.9236293376 -0.2357965331 0.05689818309 0.1518352594 0.05686692011 0.1518954175 0.9239899316 -0.234807853
1.08e+10 0.9219410727 -0.2396083474 0.05854243311 0.1552679971 0.05851571714 0.1553296542 0.9223110502 -0.2386138794
1.085e+10 0.9202239184 -0.2433974138 0.06021577296 0.1586783877 0.06019368392 0.1587410443 0.920603479 -0.2423975577
1.09e+10 0.9184781767 -0.2471636342 0.0619179708 0.1620661333 0.06190054859 0.1621294895 0.9188673199 -0.2461584898
1.095e+10 0.9167041493 -0.2509068103 0.06364876481 0.1654311355 0.06363600939 0.1654947916 0.9171029747 -0.2498967775
1.1e+10 0.914902038 -0.254626944 0.0654078832 0.1687731962 0.06539978451 0.1688368525 0.9153106452 -0.2536122226
1.105e+10 0.9130721444 -0.2583237374 0.06719505425 0.1720921175 0.06719158229 0.1721553742 0.9134905331 -0.2573046272
1.11e+10 0.9112147704 -0.2619971923 0.06901001624 0.1753878012 0.06901108103 0.1754502587 0.9116429401 -0.2609738932
1.115e+10 0.9093302175 -0.2656472107 0.07085247755 0.1786600494 0.07085798911 0.178721408 0.9097681679 -0.2646198225
1.12e+10 0.9074187873 -0.2692734948 0.07272216651 0.1819087642 0.07273198496 0.1819685241 0.9078664181 -0.2682424172
1.125e+10 0.9054807814 -0.2728760465 0.07461877164 0.1851336476 0.07463275701 0.1851917091 0.9059380922 -0.2718414794
1.13e+10 0.9035164013 -0.276454768 0.07654202132 0.1883346017 0.07655999375 0.1883905652 0.9039832918 -0.2754169111
1.135e+10 0.9015260485 -0.2800094615 0.07849160414 0.1915115287 0.07851337377 0.1915650944 0.9020025183 -0.2789686145
1.14e+10 0.8995099243 -0.2835401289 0.08046722858 0.1946643308 0.08049255563 0.194715099 0.8999958733 -0.2824962919
1.145e+10 0.8974684303 -0.2870465727 0.08246857331 0.1977927102 0.08249722792 0.1978405811 0.8979636581 -0.2860000452
1.15e+10 0.8954017676 -0.2905286949 0.08449533698 0.2008965691 0.08452705936 0.2009413429 0.895906274 -0.2894797768
1.155e+10 0.8933102377 -0.2939864979 0.08654720824 0.2039759098 0.08658172868 0.2040171868 0.8938239223 -0.2929350891
1.16e+10 0.8911942417 -0.2974196839 0.08862386587 0.2070305346 0.08866088462 0.207068215 0.8917169043 -0.296366184
1.165e+10 0.8890540808 -0.3008284551 0.09072499867 0.2100602457 0.09076419603 0.2100941297 0.8895855213 -0.2997728641
1.17e+10 0.8868898564 -0.3042125139 0.09285027543 0.2130650456 0.09289135168 0.2130950332 0.8874300744 -0.3031549316
1.175e+10 0.8847020692 -0.3075717628 0.09499938508 0.2160447366 0.09504201056 0.2160706281 0.8852507647 -0.3065123889
1.18e+10 0.8824910206 -0.3109063038 0.09717199655 0.2189993209 0.09721583162 0.2190210165 0.8830480932 -0.3098451382
1.185e+10 0.8802569115 -0.3142159395 0.09936778878 0.2219286012 0.09941250375 0.2219461008 0.8808221611 -0.3131530821
1.19e+10 0.878000043 -0.3175006721 0.1015864108 0.2248325796 0.101631666 0.2248457834 0.8785732694 -0.3164361229
1.195e+10 0.875720716 -0.3207604042 0.1038276016 0.2277111587 0.1038730575 0.2277200666 0.8763018189 -0.3196942629
1.2e+10 0.8734192313 -0.3239951381 0.1060910503 0.230564241 0.1061363073 0.2305688529 0.8740080106 -0.3229273047
1.205e+10 0.8710958899 -0.3272047761 0.1083763562 0.2333917288 0.1084211145 0.2333921448 0.8716922453 -0.3261353506
1.21e+10 0.8687510924 -0.3303892208 0.1106831185 0.2361937244 0.1107270785 0.2361899444 0.8693547238 -0.3293182029
1.215e+10 0.8663849398 -0.3335485746 0.1130112362 0.2389699307 0.1130539984 0.2389621545 0.866995747 -0.3324757645
1.22e+10 0.8639977328 -0.3366827399 0.1153603086 0.2417205498 0.1154015733 0.2417087773 0.8646156156 -0.3356082374
1.225e+10 0.8615898721 -0.3397916192 0.1177299352 0.2444454843 0.1177694028 0.2444298154 0.8622146301 -0.3387153244
1.23e+10 0.8591615583 -0.3428753149 0.1201199153 0.2471445368 0.1201572861 0.2471252712 0.8597930914 -0.3417970278
1.235e+10 0.856713092 -0.3459336297 0.1225299482 0.2498179096 0.1225649225 0.2497950472 0.8573512001 -0.3448534501
1.24e+10 0.854244674 -0.3489667657 0.1249596333 0.2524655054 0.1249919116 0.2524393458 0.8548892567 -0.3478843939
1.245e+10 0.8517566048 -0.3519745257 0.1274086703 0.2550873265 0.1274381526 0.2550580695 0.8524075617 -0.3508899616
1.25e+10 0.8492491847 -0.354957012 0.1298768585 0.2576832755 0.1299032452 0.2576512207 0.8499064157 -0.3538700557
1.255e+10 0.8467226145 -0.3579142272 0.1323638974 0.260253455 0.1323868888 0.2602188021 0.8473860192 -0.3568247787
1.26e+10 0.8441771944 -0.3608459739 0.1348694867 0.2627978675 0.1348889829 0.2627609161 0.8448467726 -0.3597539332
1.265e+10 0.841613125 -0.3637525544 0.1373934259 0.2653165155 0.1374091273 0.2652774652 0.8422887762 -0.3626575218
1.27e+10 0.8390307065 -0.3666336714 0.1399352148 0.2678094015 0.1399471213 0.2677686519 0.8397123305 -0.3655357467
1.275e+10 0.8364300397 -0.3694895274 0.1424948528 0.2702764282 0.1425027647 0.2702343788 0.837117636 -0.3683884109
1.28e+10 0.8338115245 -0.3723201249 0.1450719398 0.2727178979 0.1450757572 0.2726746483 0.8345050926 -0.3712155167
1.285e+10 0.8311752613 -0.3751252666 0.1476662756 0.2751335135 0.1476659984 0.2750895632 0.8318749009 -0.3740171666
1.29e+10 0.8285215504 -0.3779051549 0.1502775598 0.2775235772 0.1502730881 0.2774791259 0.829227161 -0.3767932633
1.295e+10 0.8258505922 -0.3806597923 0.1529056921 0.2798879917 0.1528969259 0.2798434388 0.8265622732 -0.3795439093
1.3e+10 0.8231625867 -0.3833890816 0.1555502725 0.2822267597 0.1555373118 0.2821824047 0.8238803377 -0.3822690072
1.305e+10 0.8204576343 -0.3860930253 0.1582111009 0.2845399837 0.1581939455 0.2844961263 0.8211816545 -0.3849686595
1.31e+10 0.8177361349 -0.3887717261 0.160888077 0.2868276662 0.1608668267 0.2867846059 0.818466424 -0.3876428689
1.315e+10 0.8149981888 -0.3914251863 0.1635809009 0.2890898101 0.1635555556 0.2890479463 0.815734846 -0.390291538
1.32e+10 0.8122439961 -0.394053309 0.1662894722 0.2913265177 0.1662601317 0.29128615 0.8129871209 -0.3929147694
1.325e+10 0.8094737568 -0.3966561964 0.1690133913 0.2935377917 0.1689802552 0.2934992197 0.8102234485 -0.3955125657
1.33e+10 0.8066875709 -0.3992337516 0.1717526579 0.295723635 0.1717158261 0.2956870584 0.8074441288 -0.3980848297
1.335e+10 0.8038857385 -0.4017860769 0.1745069722 0.2978840499 0.1744666442 0.2978499681 0.8046492619 -0.4006317637
1.34e+10 0.8010684594 -0.4043130753 0.1772762342 0.3000191393 0.1772325097 0.299987652 0.8018390475 -0.4031531708
1.345e+10 0.7982357339 -0.4068148493 0.1800602438 0.3021289058 0.1800134224 0.3021003127 0.7990136859 -0.4056492534
1.35e+10 0.7953878615 -0.4092913016 0.1828588013 0.304213452 0.1828090827 0.3041878529 0.7961733768 -0.4081199142
1.355e+10 0.7925250422 -0.4117424351 0.185671807 0.3062726808 0.1856193906 0.3062503753 0.7933183198 -0.4105650562
1.36e+10 0.7896473759 -0.4141682525 0.1884990608 0.3083065948 0.1884442461 0.3082878827 0.7904486151 -0.4129848817
1.365e+10 0.7867549625 -0.4165688564 0.1913403631 0.3103152968 0.1912834496 0.3103002778 0.7875644623 -0.4153792937
1.37e+10 0.7838481014 -0.4189440498 0.1941956141 0.3122987894 0.1941368014 0.3122875635 0.7846660611 -0.4177482949
1.375e+10 0.7809267927 -0.4212938357 0.1970647139 0.3142570756 0.1970044014 0.3142497428 0.7817535114 -0.4200918881
1.38e+10 0.7779913358 -0.4236183164 0.1999473633 0.3161901579 0.1998858504 0.316186818 0.7788271125 -0.422410076
1.385e+10 0.7750419304 -0.425917395 0.2028436623 0.3180979395 0.2027811485 0.3180987924 0.7758868644 -0.4247027616
1.39e+10 0.7720784762 -0.4281909747 0.2057533114 0.319980523 0.2056901961 0.3199855688 0.7729330665 -0.4269700475
1.395e+10 0.7691013727 -0.4304391578 0.2086761111 0.321837911 0.2086127936 0.3218471499 0.7699657185 -0.4292119366
1.4e+10 0.7661107192 -0.4326618475 0.2116121618 0.3236700069 0.2115487419 0.3236834388 0.7669851195 -0.4314282319
1.405e+10 0.7631066155 -0.4348590466 0.2145611641 0.3254768131 0.2144981409 0.3254945382 0.7639913695 -0.4336191361
1.41e+10 0.7600892606 -0.4370305582 0.2175230187 0.3272583328 0.2174605918 0.3272801514 0.7609845674 -0.4357844523
1.415e+10 0.7570587542 -0.439176585 0.2204975261 0.3290145685 0.2204361948 0.3290404809 0.7579650129 -0.4379242829
1.42e+10 0.7540152954 -0.4412969301 0.223484687 0.3307453237 0.223424551 0.3307753299 0.7549327051 -0.4400385314
1.425e+10 0.7509589835 -0.4433914965 0.2264843021 0.3324508008 0.2264257608 0.3324847014 0.7518878434 -0.4421272003
1.43e+10 0.7478901176 -0.4454602871 0.2294962722 0.334130803 0.2294396251 0.3341684983 0.7488305271 -0.4441901928
1.435e+10 0.7448086971 -0.4475034048 0.2325204981 0.3357853332 0.2324659449 0.3358266237 0.7457610551 -0.4462275117
1.44e+10 0.7417149209 -0.4495205527 0.2355567807 0.3374143943 0.235504621 0.3374590804 0.7426794267 -0.44823916
1.445e+10 0.7386089878 -0.4515117339 0.2386049213 0.3390177894 0.2385554547 0.3390656717 0.7395859405 -0.4502249407
1.45e+10 0.735491097 -0.4534770511 0.2416649205 0.3405955213 0.2416183466 0.3406464004 0.7364805962 -0.4521850566
1.455e+10 0.7323612476 -0.4554163077 0.2447366793 0.3421474934 0.2446930979 0.3422012694 0.7333635922 -0.454119211
1.46e+10 0.7292198378 -0.4573294064 0.2478198992 0.3436737082 0.24777961 0.3437299822 0.7302351276 -0.4560275067
1.465e+10 0.726066867 -0.4592163502 0.2509144811 0.3451741688 0.2508776841 0.3452326413 0.727095401 -0.4579098465
1.47e+10 0.7229025337 -0.4610770424 0.2540203264 0.3466485785 0.2539871212 0.3467091499 0.7239444113 -0.4597661337
1.475e+10 0.7197271363 -0.4629114856 0.2571372365 0.3480970399 0.257107823 0.3481593111 0.720782557 -0.461596371
1.48e+10 0.7165406739 -0.464719583 0.2602651124 0.3495194562 0.2602395907 0.3495831278 0.7176097371 -0.4634004616
1.485e+10 0.7133434445 -0.4665011378 0.2634037558 0.3509157304 0.2633822259 0.3509805031 0.7144262499 -0.4651784083
1.49e+10 0.7101356466 -0.4682563524 0.2665529684 0.3522856655 0.2665354304 0.3523512399 0.7112322936 -0.4669300143
1.495e+10 0.7069173789 -0.4699849303 0.2697126514 0.3536293642 0.2696992054 0.353695441 0.7080280671 -0.4686553822
1.5e+10 0.7036888395 -0.4716868745 0.2728826068 0.3549465301 0.2728732528 0.3550128098 0.7048135684 -0.4703543154
1.505e+10 0.7004503267 -0.4733620875 0.2760627358 0.3562373654 0.2760574744 0.356303449 0.7015891961 -0.4720268164
1.51e+10 0.6972019386 -0.4750105725 0.2792527407 0.3575014736 0.279251472 0.3575671613 0.6983549483 -0.4736728883
1.515e+10 0.6939438736 -0.4766323321 0.282452423 0.3587390571 0.2824552472 0.3588039498 0.6951111231 -0.4752923339
1.52e+10 0.6906763294 -0.4782270697 0.2856616848 0.3599498193 0.2856684025 0.3600136176 0.6918578186 -0.4768851562
1.525e+10 0.6873996042 -0.4797949877 0.288880328 0.361133663 0.2888908396 0.3611961671 0.6885953328 -0.4784512581
1.53e+10 0.6841138958 -0.4813358888 0.2921081546 0.3622906908 0.2921222607 0.3623516012 0.6853237637 -0.4799905423
1.535e+10 0.6808193021 -0.4828496763 0.2953448667 0.3634207056 0.2953625678 0.3634796232 0.6820433094 -0.4815031116
1.54e+10 0.6775160213 -0.4843364526 0.2985903665 0.3645236103 0.2986114629 0.3645804352 0.6787542674 -0.4829887688
1.545e+10 0.6742044505 -0.4857960205 0.3018444562 0.3655994077 0.3018686489 0.3656537404 0.6754567357 -0.4844474168
1.55e+10 0.6708846876 -0.4872283825 0.3051067382 0.3666480001 0.3051339277 0.366699641 0.672150912 -0.4858791579
1.555e+10 0.6675569305 -0.4886335416 0.3083772147 0.3676691909 0.3084071017 0.3677179402 0.6688370938 -0.4872837952
1.56e+10 0.6642213766 -0.4900113004 0.3116554883 0.3686630823 0.3116879734 0.3687087402 0.6655154788 -0.488661331
1.565e+10 0.6608784232 -0.4913618611 0.3149414612 0.369629477 0.3149761453 0.3696718437 0.6621861646 -0.4900117681
1.57e+10 0.6575280683 -0.4926850264 0.318234836 0.3705684775 0.3182715199 0.3706073532 0.6588494486 -0.4913349091
1.575e+10 0.6541707088 -0.4939807988 0.3215354155 0.3714798864 0.3215737998 0.3715151711 0.6555056282 -0.4926308562
1.58e+10 0.6508064422 -0.495249081 0.3248429023 0.3723636065 0.3248826878 0.3723952001 0.6521548008 -0.4938995122
1.585e+10 0.6474355659 -0.4964899749 0.3281570987 0.3732197398 0.3281979863 0.3732475422 0.648797164 -0.4951408793
1.59e+10 0.6440583772 -0.497703383 0.3314778079 0.3740481889 0.3315194983 0.3740721 0.6454330147 -0.4963547602
1.595e+10 0.6406749733 -0.4988893079 0.3348047325 0.3748488562 0.3348469264 0.3748688757 0.6420626501 -0.4975412569
1.6e+10 0.6372856511 -0.5000476515 0.3381375755 0.3756217439 0.3381798737 0.3756378714 0.6386861676 -0.4987003716
1.605e+10 0.6338906082 -0.501178616 0.3414761395 0.3763668541 0.3415183427 0.3763789897 0.6353037643 -0.499832007
1.61e+10 0.6304900416 -0.502282004 0.3448202276 0.3770840894 0.3448620364 0.3770923324 0.6319158373 -0.5009361649
1.615e+10 0.627084348 -0.503357817 0.3481695427 0.3777735516 0.348210558 0.3777779016 0.6285224836 -0.5020128474
1.62e+10 0.6236735248 -0.5044061575 0.3515238878 0.3784350433 0.3515637102 0.3784356993 0.6251239003 -0.503061957
1.625e+10 0.620257869 -0.5054269274 0.354882866 0.3790687658 0.3549213961 0.3790656279 0.6217204842 -0.5040835951
1.63e+10 0.6168377774 -0.5064202282 0.3582463803 0.3796746214 0.3582832187 0.3796678888 0.6183123325 -0.5050776641
1.635e+10 0.613413247 -0.5073860624 0.3616141339 0.3802525124 0.361648981 0.3802423842 0.6148996419 -0.5060441661
1.64e+10 0.6099845748 -0.5083243317 0.3649858301 0.3808025403 0.3650184861 0.3807892158 0.6114828094 -0.5069832024
1.645e+10 0.6065519576 -0.5092351379 0.3683612717 0.381324807 0.3683914375 0.3813082856 0.6080619316 -0.5078945753
1.65e+10 0.6031156921 -0.5101184825 0.3717401621 0.3818192141 0.3717676377 0.3817997951 0.6046372059 -0.5087785861
1.655e+10 0.5996759756 -0.5109744674 0.3751224045 0.3822857638 0.3751468902 0.3822637459 0.6012090285 -0.5096349371
1.66e+10 0.5962330043 -0.5118029942 0.3785076021 0.3827245574 0.3785288983 0.3827000401 0.5977773965 -0.5104638297
1.665e+10 0.5927869755 -0.5126041647 0.3818955584 0.3831354967 0.3819135647 0.3831089788 0.5943427067 -0.5112652653
1.67e+10 0.5893380857 -0.5133779802 0.3852860763 0.3835187832 0.3853004932 0.3834903639 0.5909051555 -0.5120392457
1.675e+10 0.5858865319 -0.5141244426 0.3886788594 0.3838744183 0.3886896866 0.3838443968 0.58746494 -0.5127857723
1.68e+10 0.5824326106 -0.514843653 0.3920738108 0.3842024037 0.3920807487 0.3841709792 0.5840222566 -0.5135048469
1.685e+10 0.5789764186 -0.515535613 0.3954705342 0.3845027408 0.3954735821 0.384470412 0.5805773023 -0.5141965705
1.69e+10 0.5755182527 -0.5162004236 0.3988688326 0.3847756305 0.3988678905 0.3847425967 0.5771303735 -0.5148609446
1.695e+10 0.5720582094 -0.516837987 0.4022686095 0.385020975 0.4022635772 0.3849875353 0.5736815669 -0.5154979708
1.7e+10 0.5685964856 -0.5174485038 0.4056694686 0.3852388747 0.4056604452 0.3852054284 0.570231279 -0.5161077499
1.705e+10 0.5651333777 -0.5180318757 0.4090714128 0.3854293318 0.4090582981 0.3853961778 0.5667795067 -0.5166902839
1.71e+10 0.5616689825 -0.5185882036 0.4124740459 0.3855925465 0.4124569391 0.385560084 0.5633266465 -0.5172456729
1.715e+10 0.5582035964 -0.519117489 0.415877371 0.3857285208 0.4158561719 0.385696949 0.559872695 -0.5177738194
1.72e+10 0.5547372166 -0.5196199326 0.4192808918 0.3858373549 0.4192557995 0.3858069734 0.5564180486 -0.5182749232
1.725e+10 0.5512701391 -0.5200953362 0.4226847114 0.3859190508 0.4226557252 0.3858902587 0.5529627043 -0.5187489863
1.73e+10 0.5478025606 -0.5205439005 0.426088434 0.3859736092 0.4260558527 0.385946706 0.5495070581 -0.5191960096
1.735e+10 0.5443345779 -0.5209656267 0.4294920622 0.3860012311 0.4294557855 0.385976516 0.5460512068 -0.5196160938
1.74e+10 0.5408663875 -0.5213606156 0.4328952 0.3860020171 0.4328555268 0.38597969 0.5425953469 -0.5200092399
1.745e+10 0.5373982856 -0.5217288682 0.4362977509 0.3859758686 0.43625498 0.3859562291 0.539139575 -0.5203755494
1.75e+10 0.5339302689 -0.5220703858 0.4396996185 0.3859228866 0.4396538488 0.385906334 0.5356841874 -0.5207150227
1.755e+10 0.530462534 -0.5223851695 0.4431006059 0.3858432716 0.4430520367 0.3858299059 0.5322293806 -0.5210277607
1.76e+10 0.5269952771 -0.5226733197 0.4465005169 0.3857370247 0.4464493473 0.3857270457 0.5287751513 -0.5213137646
1.765e+10 0.5235286949 -0.5229349374 0.4498991552 0.3856041464 0.4498457837 0.3855978541 0.5253218957 -0.5215731348
1.77e+10 0.5200628839 -0.5231700234 0.4532964241 0.3854448375 0.4532410498 0.3854423319 0.5218697102 -0.5218058721
1.775e+10 0.5165980404 -0.5233785788 0.4566922273 0.3852589993 0.4566351491 0.3852604804 0.5184186915 -0.5220120776
1.78e+10 0.5131343603 -0.5235606042 0.4600862688 0.385046732 0.4600277854 0.3850523999 0.5149690356 -0.5221917519
1.785e+10 0.5096719404 -0.5237162003 0.4634784519 0.3848081362 0.4634189622 0.3848180913 0.5115210389 -0.5223449953
1.79e+10 0.5062109769 -0.5238453679 0.46686868 0.3845433127 0.4668083833 0.3845575555 0.5080745981 -0.5224718091
1.795e+10 0.5027515662 -0.5239481078 0.4702567571 0.3842522622 0.4701960522 0.384270893 0.5046301093 -0.5225722932
1.8e+10 0.4992938046 -0.5240244209 0.473642587 0.3839349854 0.4735818725 0.3839581049 0.5011876687 -0.5226464488
1.805e+10 0.4958380879 -0.524074507 0.4770259733 0.3835915825 0.4769655487 0.3836190914 0.4977473724 -0.5226942763
1.81e+10 0.4923843128 -0.5240981677 0.48040682 0.3832220543 0.4803470839 0.3832540533 0.4943095168 -0.522715876
1.815e+10 0.488932875 -0.5240956023 0.4837849304 0.3828266007 0.4837261824 0.3828628908 0.4908740982 -0.5227112485
1.82e+10 0.4854836711 -0.5240667126 0.4871603086 0.3824050232 0.4871028475 0.3824457049 0.4874413128 -0.5226804944
1.825e+10 0.4820370964 -0.5240114984 0.4905326585 0.3819575215 0.4904768838 0.382002396 0.4840112568 -0.5226236142
1.83e+10 0.4785931478 -0.5239300603 0.493901984 0.3814839962 0.4938481948 0.3815330644 0.4805843257 -0.5225406078
1.835e+10 0.4751521209 -0.5238223984 0.4972680888 0.3809846474 0.4972165845 0.3810377103 0.4771604165 -0.5224315759
1.84e+10 0.471714012 -0.5236886133 0.5006307768 0.3804593756 0.500581957 0.3805162347 0.4737397247 -0.5222965189
1.845e+10 0.4682791163 -0.5235285053 0.5039900523 0.379908281 0.503944017 0.3799686372 0.4703225461 -0.5221354366
1.85e+10 0.4648474304 -0.5233421751 0.5073456193 0.3793312639 0.5073028676 0.3793950188 0.466908977 -0.5219484294
1.855e+10 0.4614193498 -0.5231297218 0.5106974816 0.3787284245 0.5106581135 0.3787953788 0.4634990133 -0.5217353978
1.86e+10 0.4579949703 -0.522891046 0.5140453436 0.3780998623 0.5140097589 0.378169618 0.4600930507 -0.5214964413
1.865e+10 0.4545742879 -0.5226261485 0.5173892092 0.3774453786 0.5173576078 0.3775177368 0.4566909854 -0.5212315609
1.87e+10 0.4511576982 -0.5223351285 0.5207289825 0.3767650726 0.5207014645 0.3768398342 0.453293213 -0.5209408557
1.875e+10 0.4477452967 -0.5220179859 0.5240642679 0.3760590438 0.5240411337 0.3761357108 0.4498998292 -0.5206243255
1.88e+10 0.4443371797 -0.5216747208 0.5273951694 0.3753271931 0.5273764193 0.3754055661 0.4465109299 -0.5202818708
1.885e+10 0.4409336421 -0.5213052333 0.5307213914 0.3745696196 0.5307073259 0.3746492007 0.4431267109 -0.5199135913
1.89e+10 0.4375348795 -0.5209096227 0.5340428387 0.3737861237 0.5340334581 0.3738667135 0.4397473674 -0.5195194867
1.895e+10 0.4341409879 -0.5204878887 0.5373593149 0.3729769045 0.5373547199 0.3730581045 0.4363729957 -0.5190996564
1.9e+10 0.4307520632 -0.5200401314 0.5406707244 0.3721418622 0.5406710155 0.3722233736 0.4330037913 -0.5186540005
1.905e+10 0.4273684997 -0.51956615 0.5439768722 0.3712809963 0.5439819509 0.3713623201 0.4296399491 -0.5181825185
1.91e+10 0.4239904938 -0.5190661434 0.5472775621 0.3703944055 0.5472875289 0.3704752429 0.4262816658 -0.5176854091
1.915e+10 0.4206180405 -0.518540012 0.5505725994 0.3694818903 0.5505874552 0.3695618426 0.4229290358 -0.5171624728
1.92e+10 0.4172514356 -0.5179878543 0.5538618878 0.3685435497 0.553881434 0.3686223172 0.4195822551 -0.5166138083
1.925e+10 0.413890974 -0.5174095698 0.5571452321 0.3675794827 0.55716947 0.3676565667 0.4162416192 -0.5160394149
1.93e+10 0.4105367514 -0.5168053573 0.5604223371 0.3665894884 0.5604511677 0.3666645898 0.4129072233 -0.5154393915
1.935e+10 0.407189063 -0.5161751157 0.5636931073 0.3655736662 0.563726332 0.3656464852 0.409579263 -0.5148136375
1.94e+10 0.4038480044 -0.5155188444 0.5669573468 0.364532115 0.5669947675 0.3646021525 0.406257834 -0.5141622518
1.945e+10 0.400513771 -0.5148366424 0.5702148607 0.3634646339 0.5702563783 0.3635316904 0.4029433313 -0.5134852332
1.95e+10 0.3971867575 -0.5141285074 0.5734654536 0.3623713216 0.57351067 0.3624350968 0.3996357505 -0.5127825806
1.955e+10 0.3938669599 -0.513394439 0.5767088302 0.3612521767 0.5767576466 0.3613123713 0.3963354864 -0.5120542925
1.96e+10 0.3905547731 -0.5126345353 0.579944895 0.360107198 0.579997013 0.3601635121 0.3930425353 -0.5113004679
1.965e+10 0.3872502928 -0.5118488944 0.5831733526 0.358936384 0.5832283743 0.3589885172 0.3897571918 -0.5105211048
1.97e+10 0.383953814 -0.5110374152 0.586394008 0.357739733 0.5864517343 0.3577875853 0.3864797515 -0.5097162017
1.975e+10 0.380665632 -0.5102001953 0.5896066655 0.3565173433 0.5896666984 0.3565606143 0.38321031 -0.508885857
1.98e+10 0.3773857425 -0.5093372337 0.5928111297 0.3552692137 0.5928730709 0.3553077029 0.3799490624 -0.5080299692
1.985e+10 0.3741145406 -0.5084487277 0.5960070059 0.3539952416 0.5960706564 0.3540288487 0.376696304 -0.5071487359
1.99e+10 0.370852222 -0.5075346751 0.599194198 0.3526956251 0.5992590598 0.3527241492 0.3734522305 -0.506242155
1.995e+10 0.3675989819 -0.5065950742 0.6023725109 0.3513703627 0.6024381854 0.3513937029 0.370217037 -0.5053101252
2e+10 0.3643550159 -0.5056300228 0.6055416492 0.3500193521 0.6056077374 0.3500376071 0.3669909196 -0.5043529435
2.005e+10 0.3611207193 -0.5046397175 0.6087013176 0.3486427903 0.6087674212 0.3486557595 0.3637741725 -0.503370408
2.01e+10 0.3578960876 -0.5036239573 0.6118513203 0.3472407754 0.6119171407 0.347248358 0.3605669926 -0.5023628158
2.015e+10 0.3546815168 -0.5025831383 0.6149914622 0.3458131054 0.6150564998 0.3458155992 0.3573694748 -0.5013300654
2.02e+10 0.3514771021 -0.5015171586 0.6181214475 0.3443600771 0.6181852042 0.3443573808 0.3541820144 -0.5002722531
2.025e+10 0.3482831393 -0.5004261154 0.621240981 0.3428816878 0.621303257 0.3428739004 0.3510048074 -0.4991894767
2.03e+10 0.345099824 -0.4993101057 0.6243499665 0.3413780353 0.6244101634 0.3413652547 0.3478379493 -0.4980817338
2.035e+10 0.341927452 -0.4981693262 0.627448009 0.3398491159 0.6275058269 0.3398315406 0.3446818358 -0.4969492207
2.04e+10 0.338766119 -0.4970036747 0.6305349125 0.3382951273 0.6305899524 0.3382728557 0.3415365628 -0.4957919349
2.045e+10 0.3356161215 -0.4958135474 0.6336104812 0.3367159664 0.6336624427 0.3366893964 0.3384024262 -0.4946100733
2.05e+10 0.3324776544 -0.4945987415 0.6366744194 0.3351120295 0.6367228039 0.3350811593 0.335279721 -0.4934035324
2.055e+10 0.3293509146 -0.4933596535 0.6397264312 0.3334831139 0.639771138 0.3334483422 0.3321684443 -0.4921726097
2.06e+10 0.3262361976 -0.49209618 0.6427664208 0.3318295163 0.6428069501 0.3317911405 0.3290689913 -0.4909172015
2.065e+10 0.3231336 -0.4908086176 0.6457939919 0.3301513327 0.6458301434 0.3301096512 0.3259815585 -0.489637604
2.07e+10 0.3200433175 -0.4894968635 0.6488090486 0.3284486605 0.6488404225 0.3284039711 0.3229063417 -0.4883338143
2.075e+10 0.3169657469 -0.488161313 0.6518112948 0.3267215953 0.6518377898 0.3266743962 0.3198436371 -0.4870059286
2.08e+10 0.3139007837 -0.4868018638 0.6548004345 0.3249702342 0.6548217504 0.3249208234 0.3167935412 -0.4856542432
2.085e+10 0.3108488254 -0.4854188112 0.657776271 0.3231948728 0.6577923067 0.3231436489 0.3137562503 -0.4842786548
2.09e+10 0.3078100678 -0.4840122519 0.6607387082 0.321395508 0.6607492629 0.321342869 0.3107321603 -0.4828793594
2.095e+10 0.3047846075 -0.4825822822 0.6636873496 0.3195723355 0.6636923223 0.3195186799 0.3077212683 -0.4814565533
2.1e+10 0.301772741 -0.4811289981 0.666622099 0.3177254517 0.6666213879 0.3176713775 0.3047239706 -0.4800103323
2.105e+10 0.2987744657 -0.4796526959 0.6695426591 0.3158551526 0.6695361634 0.3158009583 0.3017402638 -0.478540793
2.11e+10 0.2957901773 -0.4781533716 0.6724488342 0.3139614338 0.6724366519 0.3139076185 0.2987705444 -0.4770481311
2.115e+10 0.2928198735 -0.4766312217 0.6753405266 0.3120445921 0.6753225565 0.311991554 0.2958149095 -0.4755324428
2.12e+10 0.2898637511 -0.4750864419 0.6782174405 0.3101046231 0.67819378 0.3100529611 0.2928735555 -0.4739938242
2.125e+10 0.2869221064 -0.473519028 0.6810793781 0.3081419223 0.681050126 0.3080919356 0.2899465802 -0.4724325711
2.13e+10 0.2839950374 -0.4719293758 0.6839261428 0.3061564854 0.6838914963 0.3061087731 0.2870343799 -0.4708487788
2.135e+10 0.2810825407 -0.4703173824 0.6867576374 0.3041486091 0.686717695 0.3041034706 0.2841369519 -0.4692425441
2.14e+10 0.2781850132 -0.4686832427 0.6895736651 0.3021183886 0.6895286244 0.3020763232 0.2812545933 -0.4676140622
2.145e+10 0.2753025526 -0.4670272525 0.6923740282 0.3000660195 0.6923240872 0.3000274269 0.2783874014 -0.465963529
2.15e+10 0.272435156 -0.4653494084 0.6951585299 0.2979916979 0.6951039861 0.2979569779 0.2755355734 -0.4642910403
2.155e+10 0.2695831213 -0.4636500056 0.6979270726 0.2958956191 0.6978682236 0.2958651717 0.2726993064 -0.462596692
2.16e+10 0.2667464453 -0.4619290407 0.7006795588 0.2937778798 0.7006166025 0.2937521046 0.2698786983 -0.4608807798
2.165e+10 0.2639254253 -0.4601867088 0.7034156912 0.2916387743 0.7033490256 0.2916178723 0.2670739461 -0.4591433991
2.17e+10 0.261120159 -0.4584231061 0.7061353725 0.2894783989 0.7060654946 0.2894627708 0.264285148 -0.4573847461
2.175e+10 0.2583306446 -0.4566385284 0.7088385045 0.2872969492 0.708765812 0.2872868958 0.2615125014 -0.4556050161
2.18e+10 0.255557179 -0.4548329712 0.7115249896 0.2850947208 0.7114497811 0.2850903428 0.2587562033 -0.4538042047
2.185e+10 0.25279986 -0.4530066305 0.7141946305 0.2828717093 0.7141175033 0.2828733083 0.2560162522 -0.4519826082
2.19e+10 0.2500586854 -0.4511596022 0.7168473294 0.2806281105 0.716768681 0.2806359874 0.2532929456 -0.4501404212
2.195e+10 0.2473339529 -0.4492920819 0.7194830879 0.2783642202 0.719403317 0.2783783763 0.2505862811 -0.4482776407
2.2e+10 0.2446256604 -0.4474041652 0.7221016084 0.2760801333 0.7220213126 0.2761007706 0.2478964575 -0.446394661
2.205e+10 0.2419340053 -0.4454959479 0.7247027934 0.2737760454 0.724622571 0.2738031665 0.2452235714 -0.4444913786
2.21e+10 0.2392589863 -0.4435676263 0.7272867438 0.2714521531 0.7272069935 0.2714857595 0.2425677218 -0.4425680892
2.215e+10 0.2366009007 -0.4416193948 0.7298531624 0.2691085506 0.7297744826 0.2691486447 0.239929206 -0.4406249872
2.22e+10 0.2339597461 -0.43965115 0.7324020511 0.2667454345 0.7323248405 0.266792018 0.2373079227 -0.4386621692
2.225e+10 0.2313356214 -0.4376632876 0.7349333115 0.2643629002 0.734858169 0.264415876 0.2347040694 -0.436679731
2.23e+10 0.2287287232 -0.4356557028 0.7374467459 0.2619611426 0.7373742705 0.2620203138 0.2321177445 -0.4346779674
2.235e+10 0.2261391505 -0.4336286911 0.7399424557 0.2595402581 0.739872947 0.2596055263 0.2295491457 -0.4326568742
2.24e+10 0.2235670013 -0.4315822483 0.7424201426 0.2571005412 0.7423542995 0.2571717098 0.2269982723 -0.4306167468
2.245e+10 0.2210122733 -0.4295164707 0.7448799089 0.2546419888 0.7448181314 0.2547187605 0.2244652211 -0.4285574816
2.25e+10 0.2184753642 -0.4274315526 0.7473216557 0.2521647952 0.7472643444 0.2522467728 0.2219502909 -0.4264794727
2.255e+10 0.2159561728 -0.4253275899 0.7497451849 0.2496690564 0.7496928394 0.2497560427 0.2194532808 -0.4243828167
2.26e+10 0.2134548968 -0.4232046778 0.7521503985 0.2471549671 0.7521035195 0.2472464656 0.2169745876 -0.4222675081
2.265e+10 0.2109715351 -0.4210630123 0.7545373977 0.2446225242 0.7544961856 0.2447183366 0.2145141105 -0.4201337431
2.27e+10 0.2085064844 -0.4189025879 0.7569058848 0.2420719212 0.7568709405 0.2421714516 0.2120721473 -0.4179817164
2.275e+10 0.2060596437 -0.4167235007 0.7592559608 0.2395032552 0.7592274855 0.2396061058 0.209648597 -0.415811524
2.28e+10 0.2036312116 -0.4145259452 0.7615874272 0.2369167205 0.7615657224 0.2370223939 0.2072436578 -0.4136232607
2.285e+10 0.2012212852 -0.4123099172 0.7639001861 0.2343123125 0.7638855535 0.2344202118 0.2048574279 -0.4114171218
2.29e+10 0.1988299638 -0.4100756119 0.7661942389 0.231690127 0.76618688 0.2317998542 0.2024901054 -0.4091931025
2.295e+10 0.1964575451 -0.4078231236 0.7684694867 0.2290503589 0.7684695042 0.2291612163 0.2001415893 -0.4069513986
2.3e+10 0.1941040278 -0.4055525478 0.770725731 0.2263931027 0.770733427 0.2265044935 0.1978121783 -0.4046922043
2.305e+10 0.19176961 -0.403263979 0.7729629738 0.2237183543 0.7729782508 0.2238297793 0.1955019702 -0.4024155146
2.31e+10 0.1894543899 -0.4009575127 0.7751810168 0.2210262085 0.775204077 0.2211370704 0.1932109635 -0.4001214254
2.315e+10 0.1871585666 -0.3986333432 0.7773798603 0.2183168602 0.7774107071 0.2184264608 0.1909393574 -0.3978101313
2.32e+10 0.1848823377 -0.3962914651 0.7795594063 0.2155903049 0.779597843 0.2156980449 0.1886871503 -0.3954817273
2.325e+10 0.1826256028 -0.3939320741 0.7817194561 0.2128466371 0.7817654856 0.2129519182 0.1864546406 -0.3931363077
2.33e+10 0.1803888591 -0.3915551633 0.7838599112 0.2100859512 0.7839133368 0.2101881741 0.1842418276 -0.3907740673
2.335e+10 0.1781720067 -0.3891610278 0.7859805727 0.2073083421 0.7860412975 0.2074069078 0.1820489093 -0.3883950008
2.34e+10 0.1759752434 -0.386749563 0.7880815417 0.2045139053 0.7881492695 0.2046082141 0.1798759848 -0.3859992036
2.345e+10 0.1737988681 -0.3843210614 0.7901624196 0.2017026342 0.7902368536 0.201792186 0.1777231534 -0.3835869689
2.35e+10 0.1716429799 -0.3818756185 0.7922233072 0.1988747243 0.7923041515 0.1989588193 0.1755906131 -0.3811581925
2.355e+10 0.1695076784 -0.3794134277 0.7942639052 0.1960302696 0.7943506636 0.1961084069 0.1734783637 -0.3787130681
2.36e+10 0.1673931612 -0.3769343839 0.7962840156 0.1931692641 0.7963764913 0.1932409439 0.1713867041 -0.3762517897
2.365e+10 0.1652996286 -0.3744388805 0.7982836386 0.190291803 0.798381235 0.1903566235 0.1693156332 -0.3737743524
2.37e+10 0.1632272789 -0.3719268116 0.8002625751 0.1873980798 0.8003646963 0.1874555394 0.1672654504 -0.3712809493
2.375e+10 0.1611762126 -0.3693985712 0.8022206259 0.1844880892 0.8023268748 0.1845377867 0.1652361551 -0.3687716757
2.38e+10 0.159146628 -0.3668541533 0.8041576918 0.1815619251 0.8042673723 0.1816034583 0.1632280459 -0.3662466247
2.385e+10 0.1571387254 -0.3642937508 0.8060734731 0.1786197811 0.8061859882 0.1786528476 0.1612411236 -0.3637059904
2.39e+10 0.1551527044 -0.3617175577 0.8079678708 0.1756616514 0.8080826232 0.1756860487 0.1592756864 -0.3611497668
2.395e+10 0.1531886642 -0.3591255683 0.8098406844 0.1726878298 0.8099570776 0.1727031558 0.1573317355 -0.358578248
2.4e+10 0.1512468055 -0.3565181756 0.8116918148 0.1696982106 0.8118090513 0.1697043615 0.1554095697 -0.3559915273
2.405e+10 0.1493274278 -0.3538954725 0.8135209621 0.1666929867 0.8136383443 0.1666898593 0.153509289 -0.3533896985
2.41e+10 0.1474304317 -0.3512575537 0.8153279263 0.1636723522 0.8154447563 0.163659843 0.1516310939 -0.3507729548
2.415e+10 0.1455563174 -0.3486047113 0.8171126071 0.1606364003 0.8172281869 0.1606145057 0.1497751842 -0.3481413902
2.42e+10 0.1437049858 -0.3459371394 0.8188747043 0.157585325 0.8189882357 0.1575540409 0.1479415602 -0.3454950986
2.425e+10 0.1418768366 -0.3432549311 0.8206141182 0.1545191198 0.8207249019 0.154478642 0.1461305226 -0.3428343731
2.43e+10 0.1400718711 -0.3405582799 0.8223305471 0.1514381775 0.8224378849 0.1513885022 0.1443422724 -0.3401594065
2.435e+10 0.1382902909 -0.337847579 0.8240238914 0.1483423927 0.8241269832 0.1482839148 0.1425768095 -0.3374701936
2.44e+10 0.1365322961 -0.3351228217 0.8256939497 0.1452321578 0.8257919962 0.1451650727 0.1408345354 -0.3347670263
2.445e+10 0.1347979892 -0.3323844009 0.8273403207 0.1421076657 0.8274328222 0.1420321699 0.1391154513 -0.3320500985
2.45e+10 0.1330876701 -0.3296324099 0.8289630045 0.1389689103 0.8290491602 0.1388854986 0.1374198575 -0.3293195034
2.455e+10 0.1314013414 -0.3268671425 0.8305617989 0.1358161855 0.8306409083 0.1357252531 0.1357477563 -0.3265755349
2.46e+10 0.1297392052 -0.3240888917 0.8321364028 0.1326496837 0.8322079639 0.1325518265 0.1340994487 -0.3238182859
2.465e+10 0.1281013628 -0.3212977506 0.8336866144 0.1294696983 0.8337499261 0.1293654113 0.132475037 -0.3210480492
2.47e+10 0.1264881161 -0.3184940124 0.8352123318 0.1262764224 0.8352668926 0.1261662017 0.1308747227 -0.3182650189
2.475e+10 0.124899368 -0.3156779715 0.8367133537 0.1230699504 0.8367585606 0.1229545909 0.1292986077 -0.3154693882
2.48e+10 0.123335421 -0.3128498202 0.8381893772 0.1198507739 0.8382249275 0.1197308725 0.1277468948 -0.3126613504
2.485e+10 0.1217962774 -0.3100099525 0.8396403005 0.1166188874 0.8396656916 0.1164951397 0.1262197853 -0.3098411983
2.49e+10 0.1202821396 -0.3071583623 0.8410660212 0.1133746842 0.841080849 0.113247986 0.1247173829 -0.3070091261
2.495e+10 0.1187931111 -0.3042955423 0.8424662362 0.1101184571 0.842470198 0.1099894054 0.1232397893 -0.3041653272
2.5e+10 0.1173292946 -0.3014216866 0.8438407436 0.1068502997 0.8438337342 0.1067198916 0.1217872082 -0.3013101947
2.505e+10 0.1158907942 -0.2985370889 0.8451895391 0.1035707358 0.8451712546 0.1034397579 0.1203597425 -0.2984438227
2.51e+10 0.1144776122 -0.2956419439 0.8465124208 0.1002798691 0.8464827564 0.100149209 0.1189575948 -0.2955665047
2.515e+10 0.1130899522 -0.2927365444 0.847809185 0.09697805301 0.847768036 0.09684858804 0.1175807689 -0.2926785345
2.52e+10 0.1117278188 -0.2898212851 0.8490797279 0.09366557127 0.8490271889 0.09353820009 0.1162294684 -0.289780206
2.525e+10 0.1103912144 -0.2868961607 0.8503238468 0.09034273738 0.8502601123 0.09021836911 0.1149038965 -0.2868717125
2.53e+10 0.109080444 -0.283961764 0.8515416368 0.08700985622 0.8514666019 0.08688937851 0.1136039572 -0.2839533494
2.535e+10 0.1077953106 -0.2810180909 0.8527326952 0.08366723074 0.8526468536 0.08355155441 0.1123298546 -0.2810254099
2.54e+10 0.1065360193 -0.2780656351 0.8538972169 0.08031517594 0.8538006633 0.0802051798 0.1110817924 -0.2780881882
2.545e+10 0.1053024735 -0.2751044921 0.8550348987 0.07695402579 0.8549281271 0.07685058087 0.1098596747 -0.2751418795
2.55e+10 0.104094878 -0.2721350555 0.8561457358 0.07358409458 0.8560291405 0.07348804147 0.1086636058 -0.2721867781
2.555e+10 0.1029131362 -0.2691574214 0.8572296242 0.07020569665 0.8571037992 0.07011784714 0.1074937904 -0.2692232779
2.56e+10 0.1017573439 -0.2661720839 0.8582865586 0.06681916683 0.8581519983 0.06674031229 0.1063502331 -0.266251674
2.565e+10 0.1006274547 -0.2631791389 0.8593164355 0.06342482 0.8591738341 0.06335570302 0.1052329375 -0.2632720618
2.57e+10 0.0995235139 -0.2601789813 0.860319249 0.06002299096 0.8601693012 0.05996430428 0.1041420094 -0.2602849358
2.575e+10 0.09844551517 -0.2571717071 0.8612949955 0.05661399508 0.8611384958 0.05656639213 0.1030774524 -0.257290392
2.58e+10 0.09739346392 -0.2541577111 0.8622435695 0.05319816684 0.862081313 0.05316222125 0.1020393718 -0.2542888245
2.585e+10 0.0963673441 -0.25113709 0.863165066 0.04977581234 0.8629979477 0.04975207839 0.1010277432 -0.2512806295
2.59e+10 0.0953671506 -0.2481101393 0.8640594805 0.04634724712 0.8638883959 0.0463361893 0.1000425603 -0.248265903
2.595e+10 0.09439285908 -0.2450772546 0.8649267076 0.04291280604 0.8647527523 0.04291481014 0.09908386829 -0.2452449402
2.6e+10 0.09344445292 -0.2420384327 0.8657669423 0.03947277592 0.8655910127 0.03948817677 0.09815166263 -0.2422181373
2.605e+10 0.09252190777 -0.2389940693 0.8665800792 0.03602746189 0.8664032719 0.03605651563 0.09724594841 -0.2391857899
2.61e+10 0.09162519768 -0.2359442613 0.8673663138 0.03257718095 0.8671896258 0.03262004335 0.09636669974 -0.236147995
2.615e+10 0.09075428779 -0.2328893046 0.8681255406 0.02912220843 0.8679500695 0.02917897598 0.09551392225 -0.233105148
2.62e+10 0.08990915265 -0.2298293962 0.8688578546 0.02566283093 0.8686847983 0.02573350089 0.09468757059 -0.230057446
2.625e+10 0.08908974698 -0.2267647328 0.8695634502 0.02219933565 0.8693938075 0.02228382433 0.09388763055 -0.2270052853
2.63e+10 0.08829603591 -0.223695611 0.8702422226 0.01873198828 0.8700772923 0.01883011384 0.09311405621 -0.2239487628
2.635e+10 0.08752798295 -0.2206220277 0.8708943666 0.01526104625 0.8707351488 0.01537255532 0.09236680338 -0.220888275
2.64e+10 0.08678556321 -0.2175442801 0.8715199774 0.01178675841 0.8713675722 0.01191129536 0.09164584609 -0.2178239191
2.645e+10 0.08606871083 -0.214462465 0.87211905 0.008309377358 0.8719746583 0.008446499284 0.09095110968 -0.214755992
2.65e+10 0.08537741151 -0.2113769794 0.8726917784 0.004829132452 0.8725564018 0.0049783075 0.09028255933 -0.2116847908
2.655e+10 0.08471162811 -0.2082877209 0.8732383585 0.001346247086 0.8731128994 0.001506854816 0.08964012972 -0.2086105129
2.66e+10 0.08407130582 -0.205194986 0.8737585853 -0.002139065691 0.8736442462 -0.001967731733 0.08902374554 -0.2055333551
2.665e+10 0.08345642916 -0.2020989724 0.8742528534 -0.005626602721 0.874150438 -0.005445336209 0.08843336139 -0.2024535153
2.67e+10 0.08286696211 -0.1989997777 0.8747212584 -0.009116178538 0.8746316707 -0.008925837499 0.08786890193 -0.1993711912
2.675e+10 0.08230287867 -0.1958974983 0.8751636957 -0.01260759182 0.8750878403 -0.01240913916 0.08733029186 -0.1962865794
2.68e+10 0.08176416379 -0.1927924325 0.8755805597 -0.01610070335 0.875519142 -0.01589515308 0.0868174862 -0.1931999784
2.685e+10 0.08125077038 -0.1896844769 0.8759717467 -0.01959532657 0.8759254726 -0.01938377264 0.08633038914 -0.190111485
2.69e+10 0.08076271403 -0.1865740289 0.8763374514 -0.02309131335 0.8763069272 -0.02287492025 0.08586894523 -0.1870212971
2.695e+10 0.080299958 -0.1834610856 0.8766776699 -0.02658854648 0.8766635025 -0.02636851867 0.08543307842 -0.1839295122
2.7e+10 0.0798625062 -0.1803457449 0.8769926971 -0.03008687711 0.8769951942 -0.0298644908 0.0850227339 -0.1808364282
2.705e+10 0.07945035313 -0.1772282038 0.8772825291 -0.03358618802 0.8773020984 -0.03336274882 0.0846378351 -0.1777420429
2.71e+10 0.0790635026 -0.1741085594 0.8775472608 -0.03708637132 0.8775841106 -0.03686323605 0.08427831774 -0.1746467534
2.715e+10 0.07870196901 -0.170987009 0.8777869885 -0.0405873392 0.8778413274 -0.04036588473 0.08394412454 -0.171550458
2.72e+10 0.07836575576 -0.1678635499 0.878001808 -0.04408897377 0.878073645 -0.04387061816 0.08363520019 -0.1684533541
2.725e+10 0.07805488724 -0.1647383786 0.8781917147 -0.04759121769 0.8782809591 -0.04737736969 0.08335149917 -0.1653556387
2.73e+10 0.07776939734 -0.1616115929 0.8783569042 -0.0510939724 0.8784633655 -0.05088607143 0.08309295611 -0.1622575103
2.735e+10 0.07750932062 -0.1584833891 0.8784973728 -0.0545971706 0.8786206606 -0.05439664734 0.08285953386 -0.1591588659
2.74e+10 0.07727467032 -0.1553537648 0.8786131164 -0.05810076479 0.8787529403 -0.05790903948 0.08265119751 -0.1560600031
2.745e+10 0.07706552113 -0.1522229164 0.8787042305 -0.0616046771 0.8788600002 -0.06142314184 0.08246791127 -0.1529610194
2.75e+10 0.07688190759 -0.1490910412 0.878770811 -0.06510884944 0.8789418363 -0.06493888708 0.08230963856 -0.1498619125
2.755e+10 0.07672388317 -0.1459581354 0.8788127538 -0.06861324504 0.8789982444 -0.06845618918 0.08217638467 -0.146762979
2.76e+10 0.07659151317 -0.1428244958 0.8788300547 -0.07211781638 0.8790292197 -0.07197494079 0.08206810323 -0.1436642166
2.765e+10 0.0764848612 -0.1396901196 0.8788228101 -0.07562249556 0.8790346586 -0.07549504533 0.08198480783 -0.1405656229
2.77e+10 0.07640399211 -0.1365552029 0.8787909148 -0.07912724563 0.8790143558 -0.07901638665 0.08192649457 -0.1374675943
2.775e+10 0.07634900073 -0.1334199424 0.8787344653 -0.08263202863 0.8789682072 -0.08253884818 0.08189316594 -0.1343699287
2.78e+10 0.07631995154 -0.1302844348 0.8786532569 -0.08613677827 0.8788962076 -0.08606229258 0.08188483762 -0.1312729228
2.785e+10 0.07631692964 -0.1271488762 0.8785473855 -0.08964145651 0.8787979525 -0.08958657502 0.08190153349 -0.1281765734
2.79e+10 0.07634002018 -0.1240134636 0.8784167463 -0.09314599643 0.8786735364 -0.09311154758 0.0819432787 -0.1250810781
2.795e+10 0.07638931849 -0.1208783928 0.8782612345 -0.09665033117 0.8785226542 -0.09663705475 0.08201009797 -0.1219865332
2.8e+10 0.07646490945 -0.1177437609 0.8780807463 -0.1001544439 0.8783453002 -0.1001628294 0.08210205612 -0.1188930359
2.805e+10 0.07656688889 -0.1146098634 0.8778751762 -0.1036582076 0.8781410699 -0.1036888663 0.08221918774 -0.1158006824
2.81e+10 0.07669534294 -0.1114768978 0.877644519 -0.1071615248 0.8779100562 -0.1072147677 0.08236153891 -0.1127096707
2.815e+10 0.07685038681 -0.1083450598 0.8773885707 -0.1106643992 0.8776519543 -0.1107404381 0.08252919355 -0.1096199966
2.82e+10 0.07703208707 -0.1052145367 0.8771073251 -0.1141666331 0.8773666567 -0.1142654806 0.08272220879 -0.1065319577
2.825e+10 0.07724054952 -0.1020856041 0.8768004772 -0.1176681308 0.877053959 -0.1177898989 0.08294064893 -0.10344559
2.83e+10 0.07747586089 -0.09895849908 0.8764679221 -0.1211688952 0.8767137531 -0.1213131961 0.08318460008 -0.1003610506
2.835e+10 0.07773810809 -0.09583347825 0.8761095532 -0.1246686292 0.8763458327 -0.124835176 0.08345415861 -0.09727852626
2.84e+10 0.07802737786 -0.09271080863 0.8757252648 -0.1281672356 0.8759500911 -0.1283555413 0.08374938036 -0.09419815431
2.845e+10 0.07834373701 -0.08959075714 0.8753148512 -0.1316646179 0.8755264209 -0.1318739951 0.08407038156 -0.09112013142
2.85e+10 0.07868728346 -0.0864736104 0.8748781055 -0.1351604794 0.8750746146 -0.1353901408 0.08441724935 -0.08804463438
2.855e+10 0.07905805381 -0.08335966524 0.8744148225 -0.1386548232 0.8745944654 -0.1389037816 0.0847900695 -0.08497184979
2.86e+10 0.07945613653 -0.08024922007 0.8739249941 -0.1421472514 0.8740860647 -0.142414419 0.08518893978 -0.08190198607
2.865e+10 0.07988156938 -0.07714259172 0.8734083138 -0.1456375677 0.8735492049 -0.145921756 0.08561395718 -0.07883525972
2.87e+10 0.08033440009 -0.07404009763 0.8728645753 -0.149125675 0.8729837779 -0.1494253951 0.08606522872 -0.07577189788
2.875e+10 0.08081466746 -0.07094205647 0.8722937704 -0.1526111749 0.8723897746 -0.1529248379 0.08654283251 -0.07271212899
2.88e+10 0.08132239963 -0.06784881541 0.8716955916 -0.1560937709 0.8717669879 -0.1564198872 0.08704686594 -0.0696562098
2.885e+10 0.08185760467 -0.06476070334 0.8710699323 -0.1595733649 0.8711155086 -0.1599100436 0.08757741648 -0.06660438871
2.89e+10 0.08242029216 -0.06167807915 0.8704166834 -0.1630494589 0.8704353273 -0.1633948084 0.08813458295 -0.06355693407
2.895e+10 0.08301045096 -0.05860130096 0.869735637 -0.1665217551 0.8697262355 -0.1668737839 0.08871843371 -0.06051414345
2.9e+10 0.08362805943 -0.05553071814 0.8690265857 -0.1699900558 0.8689884243 -0.1703465697 0.08932904647 -0.0574762856
2.905e+10 0.08427308719 -0.05246669049 0.8682895203 -0.1734538617 0.8682218842 -0.1738126665 0.08996649047 -0.05444367963
2.91e+10 0.08494550356 -0.04940959718 0.8675242317 -0.1769127749 0.8674266063 -0.1772716749 0.09063082445 -0.05141663411
2.915e+10 0.08564521757 -0.04635979879 0.866730612 -0.1803664962 0.8666027809 -0.1807230938 0.09132209713 -0.04839547868
2.92e+10 0.08637217854 -0.04331767517 0.8659086521 -0.1838146261 0.8657502991 -0.1841665241 0.09204035733 -0.04538053248
2.925e+10 0.08712629584 -0.04028358717 0.8650582431 -0.1872567652 0.8648693511 -0.1876014645 0.09278564426 -0.04237214549
2.93e+10 0.08790744955 -0.03725790612 0.8641792748 -0.190692314 0.8639601273 -0.1910274133 0.09355795782 -0.03937067816
2.935e+10 0.08871553828 -0.03424101298 0.8632717393 -0.1941210723 0.8630227185 -0.1944439696 0.0943573263 -0.03637647058
2.94e+10 0.08955042156 -0.03123325999 0.8623356264 -0.1975424396 0.8620574157 -0.1978507308 0.09518374939 -0.03338991396
2.945e+10 0.09041194952 -0.02823501871 0.8613709264 -0.2009559151 0.8610642085 -0.201247096 0.09603718711 -0.03041136911
2.95e+10 0.09129996053 -0.02524665148 0.8603775304 -0.2043610986 0.8600434892 -0.2046328616 0.09691763784 -0.02744120722
2.955e+10 0.0922142747 -0.02226851127 0.8593556285 -0.2077574877 0.8589953468 -0.2080073255 0.09782503195 -0.02447983047
2.96e+10 0.09315470973 -0.01930093131 0.8583053119 -0.2111446804 0.8579201744 -0.2113703839 0.09875931744 -0.02152762115
2.965e+10 0.09412104603 -0.01634426487 0.8572264703 -0.214522076 0.8568182609 -0.2147213332 0.09972045497 -0.01858497129
2.97e+10 0.09511307154 -0.01339884067 0.856119395 -0.2178892703 0.8556897991 -0.2180599697 0.1007081928 -0.01565226474
2.975e+10 0.09613054569 -0.01046497451 0.8549840756 -0.2212456622 0.8545350794 -0.2213857902 0.1017226811 -0.01272991774
2.98e+10 0.09717322591 -0.007542979727 0.8538208035 -0.2245908471 0.8533546945 -0.2246985881 0.1027636277 -0.009818308845
2.985e+10 0.0982408513 -0.004633150818 0.8526296695 -0.2279243219 0.8521486353 -0.2279978608 0.1038308423 -0.006917836006
2.99e+10 0.09933313923 -0.001735775981 0.8514109644 -0.2312455823 0.8509175946 -0.2312834013 0.1049242331 -0.004028889134
2.995e+10 0.1004498475 0.001148875837 0.8501647796 -0.2345542253 0.8496617647 -0.2345549058 0.1060437086 -0.001151855151
3e+10 0.1015906541 0.004020546326 0.8488914058 -0.2378496455 0.8483816376 -0.2378119676 0.1071888779 0.001712884264
