#   Hz   S  RI   R   50
!
0.000000e+00 2.734811e-03 0.000000e+00 9.964652e-01 0.000000e+00 9.964656e-01 0.000000e+00 2.734827e-03 0.000000e+00
5.000000e+07 2.734539e-03 1.975555e-04 9.964642e-01 -4.666908e-04 9.964645e-01 -4.667043e-04 2.734555e-03 1.975773e-04
1.000000e+08 2.733725e-03 3.951483e-04 9.964611e-01 -9.333091e-04 9.964614e-01 -9.333361e-04 2.733742e-03 3.951918e-04
1.500000e+08 2.732372e-03 5.928156e-04 9.964559e-01 -1.399782e-03 9.964563e-01 -1.399823e-03 2.732390e-03 5.928807e-04
2.000000e+08 2.730485e-03 7.905944e-04 9.964487e-01 -1.866039e-03 9.964490e-01 -1.866093e-03 2.730504e-03 7.906810e-04
2.500000e+08 2.728071e-03 9.885212e-04 9.964394e-01 -2.332007e-03 9.964398e-01 -2.332074e-03 2.728092e-03 9.886292e-04
3.000000e+08 2.725140e-03 1.186632e-03 9.964281e-01 -2.797617e-03 9.964285e-01 -2.797697e-03 2.725163e-03 1.186761e-03
3.500000e+08 2.721703e-03 1.384963e-03 9.964148e-01 -3.262798e-03 9.964151e-01 -3.262891e-03 2.721729e-03 1.385113e-03
4.000000e+08 2.717773e-03 1.583548e-03 9.963995e-01 -3.727481e-03 9.963998e-01 -3.727588e-03 2.717802e-03 1.583719e-03
4.500000e+08 2.713366e-03 1.782422e-03 9.963822e-01 -4.191600e-03 9.963826e-01 -4.191720e-03 2.713399e-03 1.782613e-03
5.000000e+08 2.708498e-03 1.981617e-03 9.963630e-01 -4.655089e-03 9.963633e-01 -4.655221e-03 2.708535e-03 1.981829e-03
5.500000e+08 2.703189e-03 2.181167e-03 9.963419e-01 -5.117884e-03 9.963422e-01 -5.118028e-03 2.703230e-03 2.181397e-03
6.000000e+08 2.697458e-03 2.381101e-03 9.963189e-01 -5.579921e-03 9.963192e-01 -5.580078e-03 2.697504e-03 2.381351e-03
6.500000e+08 2.691329e-03 2.581449e-03 9.962941e-01 -6.041141e-03 9.962944e-01 -6.041309e-03 2.691380e-03 2.581718e-03
7.000000e+08 2.684825e-03 2.782241e-03 9.962674e-01 -6.501485e-03 9.962677e-01 -6.501665e-03 2.684881e-03 2.782528e-03
7.500000e+08 2.677971e-03 2.983503e-03 9.962390e-01 -6.960896e-03 9.962393e-01 -6.961088e-03 2.678033e-03 2.983808e-03
8.000000e+08 2.670794e-03 3.185261e-03 9.962089e-01 -7.419322e-03 9.962092e-01 -7.419524e-03 2.670862e-03 3.185584e-03
8.500000e+08 2.663322e-03 3.387540e-03 9.961771e-01 -7.876709e-03 9.961774e-01 -7.876923e-03 2.663396e-03 3.387879e-03
9.000000e+08 2.655583e-03 3.590361e-03 9.961437e-01 -8.333010e-03 9.961440e-01 -8.333234e-03 2.655664e-03 3.590716e-03
9.500000e+08 2.647610e-03 3.793746e-03 9.961087e-01 -8.788177e-03 9.961090e-01 -8.788411e-03 2.647697e-03 3.794116e-03
1.000000e+09 2.639431e-03 3.997714e-03 9.960722e-01 -9.242167e-03 9.960724e-01 -9.242411e-03 2.639526e-03 3.998099e-03
1.050000e+09 2.631080e-03 4.202283e-03 9.960342e-01 -9.694940e-03 9.960344e-01 -9.695193e-03 2.631182e-03 4.202682e-03
1.100000e+09 2.622590e-03 4.407468e-03 9.959947e-01 -1.014646e-02 9.959950e-01 -1.014672e-02 2.622699e-03 4.407882e-03
1.150000e+09 2.613994e-03 4.613285e-03 9.959539e-01 -1.059668e-02 9.959542e-01 -1.059695e-02 2.614110e-03 4.613711e-03
1.200000e+09 2.605325e-03 4.819745e-03 9.959118e-01 -1.104558e-02 9.959121e-01 -1.104586e-02 2.605449e-03 4.820183e-03
1.250000e+09 2.596620e-03 5.026858e-03 9.958685e-01 -1.149313e-02 9.958687e-01 -1.149342e-02 2.596751e-03 5.027308e-03
1.300000e+09 2.587912e-03 5.234634e-03 9.958239e-01 -1.193930e-02 9.958242e-01 -1.193959e-02 2.588051e-03 5.235094e-03
1.350000e+09 2.579238e-03 5.443078e-03 9.957782e-01 -1.238406e-02 9.957785e-01 -1.238437e-02 2.579384e-03 5.443549e-03
1.400000e+09 2.570631e-03 5.652198e-03 9.957315e-01 -1.282741e-02 9.957317e-01 -1.282772e-02 2.570785e-03 5.652678e-03
1.450000e+09 2.562128e-03 5.861994e-03 9.956837e-01 -1.326931e-02 9.956839e-01 -1.326962e-02 2.562289e-03 5.862483e-03
1.500000e+09 2.553764e-03 6.072470e-03 9.956349e-01 -1.370975e-02 9.956351e-01 -1.371008e-02 2.553932e-03 6.072966e-03
1.550000e+09 2.545573e-03 6.283624e-03 9.955853e-01 -1.414873e-02 9.955855e-01 -1.414906e-02 2.545749e-03 6.284128e-03
1.600000e+09 2.537591e-03 6.495455e-03 9.955348e-01 -1.458624e-02 9.955350e-01 -1.458657e-02 2.537774e-03 6.495965e-03
1.650000e+09 2.529852e-03 6.707959e-03 9.954835e-01 -1.502226e-02 9.954837e-01 -1.502260e-02 2.530042e-03 6.708475e-03
1.700000e+09 2.522390e-03 6.921131e-03 9.954314e-01 -1.545679e-02 9.954316e-01 -1.545714e-02 2.522587e-03 6.921651e-03
1.750000e+09 2.515238e-03 7.134963e-03 9.953788e-01 -1.588985e-02 9.953789e-01 -1.589019e-02 2.515442e-03 7.135488e-03
1.800000e+09 2.508430e-03 7.349448e-03 9.953254e-01 -1.632141e-02 9.953256e-01 -1.632176e-02 2.508640e-03 7.349976e-03
1.850000e+09 2.501996e-03 7.564575e-03 9.952716e-01 -1.675150e-02 9.952718e-01 -1.675185e-02 2.502212e-03 7.565105e-03
1.900000e+09 2.495969e-03 7.780332e-03 9.952172e-01 -1.718012e-02 9.952174e-01 -1.718047e-02 2.496191e-03 7.780864e-03
1.950000e+09 2.490378e-03 7.996707e-03 9.951624e-01 -1.760727e-02 9.951626e-01 -1.760763e-02 2.490606e-03 7.997240e-03
2.000000e+09 2.485254e-03 8.213685e-03 9.951072e-01 -1.803298e-02 9.951073e-01 -1.803334e-02 2.485488e-03 8.214219e-03
2.050000e+09 2.480624e-03 8.431252e-03 9.950516e-01 -1.845725e-02 9.950517e-01 -1.845761e-02 2.480863e-03 8.431786e-03
2.100000e+09 2.476516e-03 8.649390e-03 9.949957e-01 -1.888010e-02 9.949959e-01 -1.888046e-02 2.476760e-03 8.649923e-03
2.150000e+09 2.472957e-03 8.868081e-03 9.949396e-01 -1.930155e-02 9.949398e-01 -1.930191e-02 2.473206e-03 8.868613e-03
2.200000e+09 2.469971e-03 9.087307e-03 9.948833e-01 -1.972162e-02 9.948834e-01 -1.972198e-02 2.470224e-03 9.087837e-03
2.250000e+09 2.467583e-03 9.307049e-03 9.948268e-01 -2.014033e-02 9.948270e-01 -2.014069e-02 2.467840e-03 9.307576e-03
2.300000e+09 2.465816e-03 9.527284e-03 9.947702e-01 -2.055770e-02 9.947704e-01 -2.055807e-02 2.466076e-03 9.527808e-03
2.350000e+09 2.464690e-03 9.747992e-03 9.947136e-01 -2.097377e-02 9.947137e-01 -2.097413e-02 2.464953e-03 9.748513e-03
2.400000e+09 2.464227e-03 9.969151e-03 9.946569e-01 -2.138855e-02 9.946570e-01 -2.138891e-02 2.464492e-03 9.969667e-03
2.450000e+09 2.464445e-03 1.019074e-02 9.946002e-01 -2.180207e-02 9.946003e-01 -2.180243e-02 2.464712e-03 1.019125e-02
2.500000e+09 2.465361e-03 1.041273e-02 9.945436e-01 -2.221437e-02 9.945436e-01 -2.221473e-02 2.465631e-03 1.041323e-02
2.550000e+09 2.466993e-03 1.063510e-02 9.944870e-01 -2.262547e-02 9.944871e-01 -2.262583e-02 2.467264e-03 1.063560e-02
2.600000e+09 2.469355e-03 1.085782e-02 9.944305e-01 -2.303541e-02 9.944306e-01 -2.303576e-02 2.469626e-03 1.085831e-02
2.650000e+09 2.472461e-03 1.108088e-02 9.943742e-01 -2.344422e-02 9.943743e-01 -2.344457e-02 2.472733e-03 1.108136e-02
2.700000e+09 2.476322e-03 1.130424e-02 9.943181e-01 -2.385192e-02 9.943181e-01 -2.385227e-02 2.476594e-03 1.130471e-02
2.750000e+09 2.480951e-03 1.152787e-02 9.942621e-01 -2.425856e-02 9.942622e-01 -2.425891e-02 2.481222e-03 1.152835e-02
2.800000e+09 2.486356e-03 1.175177e-02 9.942064e-01 -2.466417e-02 9.942065e-01 -2.466452e-02 2.486626e-03 1.175223e-02
2.850000e+09 2.492547e-03 1.197589e-02 9.941509e-01 -2.506879e-02 9.941510e-01 -2.506913e-02 2.492815e-03 1.197634e-02
2.900000e+09 2.499529e-03 1.220021e-02 9.940957e-01 -2.547244e-02 9.940958e-01 -2.547278e-02 2.499795e-03 1.220066e-02
2.950000e+09 2.507308e-03 1.242471e-02 9.940408e-01 -2.587517e-02 9.940408e-01 -2.587550e-02 2.507573e-03 1.242515e-02
3.000000e+09 2.515890e-03 1.264936e-02 9.939862e-01 -2.627701e-02 9.939862e-01 -2.627733e-02 2.516151e-03 1.264979e-02
3.050000e+09 2.525277e-03 1.287414e-02 9.939319e-01 -2.667799e-02 9.939319e-01 -2.667831e-02 2.525535e-03 1.287456e-02
3.100000e+09 2.535472e-03 1.309901e-02 9.938779e-01 -2.707816e-02 9.938779e-01 -2.707848e-02 2.535726e-03 1.309942e-02
3.150000e+09 2.546474e-03 1.332396e-02 9.938243e-01 -2.747754e-02 9.938243e-01 -2.747785e-02 2.546724e-03 1.332436e-02
3.200000e+09 2.558284e-03 1.354896e-02 9.937710e-01 -2.787618e-02 9.937711e-01 -2.787649e-02 2.558529e-03 1.354935e-02
3.250000e+09 2.570901e-03 1.377399e-02 9.937181e-01 -2.827410e-02 9.937182e-01 -2.827441e-02 2.571140e-03 1.377437e-02
3.300000e+09 2.584321e-03 1.399901e-02 9.936656e-01 -2.867135e-02 9.936656e-01 -2.867165e-02 2.584554e-03 1.399938e-02
3.350000e+09 2.598541e-03 1.422402e-02 9.936135e-01 -2.906796e-02 9.936135e-01 -2.906825e-02 2.598768e-03 1.422438e-02
3.400000e+09 2.613557e-03 1.444898e-02 9.935617e-01 -2.946396e-02 9.935618e-01 -2.946424e-02 2.613777e-03 1.444933e-02
3.450000e+09 2.629362e-03 1.467387e-02 9.935104e-01 -2.985938e-02 9.935104e-01 -2.985966e-02 2.629575e-03 1.467421e-02
3.500000e+09 2.645951e-03 1.489867e-02 9.934594e-01 -3.025426e-02 9.934594e-01 -3.025454e-02 2.646156e-03 1.489900e-02
3.550000e+09 2.663315e-03 1.512336e-02 9.934088e-01 -3.064864e-02 9.934088e-01 -3.064891e-02 2.663513e-03 1.512368e-02
3.600000e+09 2.681448e-03 1.534792e-02 9.933586e-01 -3.104253e-02 9.933586e-01 -3.104280e-02 2.681637e-03 1.534823e-02
3.650000e+09 2.700339e-03 1.557233e-02 9.933088e-01 -3.143598e-02 9.933088e-01 -3.143624e-02 2.700519e-03 1.557263e-02
3.700000e+09 2.719979e-03 1.579657e-02 9.932594e-01 -3.182902e-02 9.932594e-01 -3.182927e-02 2.720150e-03 1.579685e-02
3.750000e+09 2.740357e-03 1.602061e-02 9.932104e-01 -3.222167e-02 9.932104e-01 -3.222192e-02 2.740518e-03 1.602089e-02
3.800000e+09 2.761462e-03 1.624445e-02 9.931617e-01 -3.261396e-02 9.931617e-01 -3.261420e-02 2.761614e-03 1.624472e-02
3.850000e+09 2.783282e-03 1.646806e-02 9.931134e-01 -3.300593e-02 9.931134e-01 -3.300616e-02 2.783424e-03 1.646832e-02
3.900000e+09 2.805806e-03 1.669143e-02 9.930655e-01 -3.339759e-02 9.930655e-01 -3.339781e-02 2.805937e-03 1.669168e-02
3.950000e+09 2.829019e-03 1.691454e-02 9.930179e-01 -3.378897e-02 9.930179e-01 -3.378919e-02 2.829139e-03 1.691478e-02
4.000000e+09 2.852909e-03 1.713738e-02 9.929706e-01 -3.418010e-02 9.929706e-01 -3.418032e-02 2.853018e-03 1.713761e-02
4.050000e+09 2.877462e-03 1.735994e-02 9.929237e-01 -3.457101e-02 9.929237e-01 -3.457122e-02 2.877559e-03 1.736016e-02
4.100000e+09 2.902663e-03 1.758219e-02 9.928771e-01 -3.496171e-02 9.928771e-01 -3.496191e-02 2.902748e-03 1.758240e-02
4.150000e+09 2.928498e-03 1.780413e-02 9.928308e-01 -3.535223e-02 9.928308e-01 -3.535242e-02 2.928571e-03 1.780433e-02
4.200000e+09 2.954951e-03 1.802574e-02 9.927848e-01 -3.574259e-02 9.927849e-01 -3.574278e-02 2.955012e-03 1.802593e-02
4.250000e+09 2.982009e-03 1.824702e-02 9.927391e-01 -3.613280e-02 9.927392e-01 -3.613299e-02 2.982057e-03 1.824720e-02
4.300000e+09 3.009654e-03 1.846795e-02 9.926937e-01 -3.652290e-02 9.926937e-01 -3.652308e-02 3.009690e-03 1.846813e-02
4.350000e+09 3.037872e-03 1.868853e-02 9.926485e-01 -3.691289e-02 9.926486e-01 -3.691306e-02 3.037895e-03 1.868869e-02
4.400000e+09 3.066647e-03 1.890874e-02 9.926036e-01 -3.730280e-02 9.926036e-01 -3.730296e-02 3.066656e-03 1.890890e-02
4.450000e+09 3.095963e-03 1.912858e-02 9.925589e-01 -3.769263e-02 9.925589e-01 -3.769279e-02 3.095959e-03 1.912873e-02
4.500000e+09 3.125803e-03 1.934804e-02 9.925144e-01 -3.808241e-02 9.925145e-01 -3.808257e-02 3.125785e-03 1.934818e-02
4.550000e+09 3.156152e-03 1.956711e-02 9.924702e-01 -3.847215e-02 9.924702e-01 -3.847230e-02 3.156121e-03 1.956724e-02
4.600000e+09 3.186994e-03 1.978579e-02 9.924261e-01 -3.886187e-02 9.924261e-01 -3.886201e-02 3.186948e-03 1.978592e-02
4.650000e+09 3.218312e-03 2.000407e-02 9.923821e-01 -3.925157e-02 9.923822e-01 -3.925170e-02 3.218253e-03 2.000419e-02
4.700000e+09 3.250090e-03 2.022195e-02 9.923384e-01 -3.964126e-02 9.923384e-01 -3.964139e-02 3.250017e-03 2.022207e-02
4.750000e+09 3.282313e-03 2.043943e-02 9.922948e-01 -4.003096e-02 9.922948e-01 -4.003109e-02 3.282226e-03 2.043954e-02
4.800000e+09 3.314965e-03 2.065650e-02 9.922513e-01 -4.042068e-02 9.922513e-01 -4.042080e-02 3.314864e-03 2.065660e-02
4.850000e+09 3.348030e-03 2.087316e-02 9.922079e-01 -4.081042e-02 9.922079e-01 -4.081053e-02 3.347914e-03 2.087326e-02
4.900000e+09 3.381492e-03 2.108941e-02 9.921646e-01 -4.120019e-02 9.921646e-01 -4.120030e-02 3.381362e-03 2.108950e-02
4.950000e+09 3.415337e-03 2.130524e-02 9.921214e-01 -4.159000e-02 9.921214e-01 -4.159011e-02 3.415192e-03 2.130533e-02
5.000000e+09 3.449548e-03 2.152066e-02 9.920782e-01 -4.197986e-02 9.920783e-01 -4.197996e-02 3.449389e-03 2.152075e-02
5.050000e+09 3.484111e-03 2.173567e-02 9.920351e-01 -4.236977e-02 9.920352e-01 -4.236986e-02 3.483938e-03 2.173575e-02
5.100000e+09 3.519012e-03 2.195027e-02 9.919921e-01 -4.275973e-02 9.919921e-01 -4.275982e-02 3.518824e-03 2.195035e-02
5.150000e+09 3.554236e-03 2.216446e-02 9.919491e-01 -4.314976e-02 9.919491e-01 -4.314984e-02 3.554034e-03 2.216453e-02
5.200000e+09 3.589768e-03 2.237823e-02 9.919060e-01 -4.353984e-02 9.919061e-01 -4.353992e-02 3.589552e-03 2.237830e-02
5.250000e+09 3.625596e-03 2.259160e-02 9.918630e-01 -4.392999e-02 9.918631e-01 -4.393006e-02 3.625365e-03 2.259167e-02
5.300000e+09 3.661705e-03 2.280457e-02 9.918200e-01 -4.432020e-02 9.918200e-01 -4.432027e-02 3.661460e-03 2.280463e-02
5.350000e+09 3.698083e-03 2.301713e-02 9.917769e-01 -4.471048e-02 9.917770e-01 -4.471055e-02 3.697824e-03 2.301720e-02
5.400000e+09 3.734716e-03 2.322930e-02 9.917338e-01 -4.510083e-02 9.917338e-01 -4.510089e-02 3.734443e-03 2.322936e-02
5.450000e+09 3.771593e-03 2.344108e-02 9.916906e-01 -4.549125e-02 9.916907e-01 -4.549130e-02 3.771306e-03 2.344114e-02
5.500000e+09 3.808701e-03 2.365247e-02 9.916474e-01 -4.588173e-02 9.916474e-01 -4.588178e-02 3.808400e-03 2.365252e-02
5.550000e+09 3.846029e-03 2.386347e-02 9.916040e-01 -4.627227e-02 9.916041e-01 -4.627232e-02 3.845714e-03 2.386352e-02
5.600000e+09 3.883565e-03 2.407409e-02 9.915606e-01 -4.666288e-02 9.915607e-01 -4.666293e-02 3.883236e-03 2.407415e-02
5.650000e+09 3.921298e-03 2.428435e-02 9.915171e-01 -4.705355e-02 9.915172e-01 -4.705359e-02 3.920956e-03 2.428440e-02
5.700000e+09 3.959219e-03 2.449423e-02 9.914735e-01 -4.744428e-02 9.914735e-01 -4.744431e-02 3.958863e-03 2.449428e-02
5.750000e+09 3.997317e-03 2.470375e-02 9.914297e-01 -4.783506e-02 9.914298e-01 -4.783509e-02 3.996947e-03 2.470380e-02
5.800000e+09 4.035582e-03 2.491292e-02 9.913858e-01 -4.822589e-02 9.913859e-01 -4.822592e-02 4.035199e-03 2.491297e-02
5.850000e+09 4.074005e-03 2.512174e-02 9.913418e-01 -4.861677e-02 9.913419e-01 -4.861680e-02 4.073609e-03 2.512179e-02
5.900000e+09 4.112578e-03 2.533022e-02 9.912976e-01 -4.900769e-02 9.912977e-01 -4.900772e-02 4.112169e-03 2.533027e-02
5.950000e+09 4.151291e-03 2.553836e-02 9.912533e-01 -4.939865e-02 9.912534e-01 -4.939868e-02 4.150870e-03 2.553841e-02
6.000000e+09 4.190138e-03 2.574618e-02 9.912088e-01 -4.978965e-02 9.912089e-01 -4.978967e-02 4.189704e-03 2.574623e-02
6.050000e+09 4.229111e-03 2.595367e-02 9.911641e-01 -5.018067e-02 9.911642e-01 -5.018069e-02 4.228664e-03 2.595373e-02
6.100000e+09 4.268202e-03 2.616085e-02 9.911193e-01 -5.057172e-02 9.911194e-01 -5.057173e-02 4.267743e-03 2.616091e-02
6.150000e+09 4.307404e-03 2.636773e-02 9.910743e-01 -5.096279e-02 9.910744e-01 -5.096280e-02 4.306934e-03 2.636778e-02
6.200000e+09 4.346713e-03 2.657431e-02 9.910291e-01 -5.135387e-02 9.910291e-01 -5.135387e-02 4.346230e-03 2.657436e-02
6.250000e+09 4.386120e-03 2.678059e-02 9.909836e-01 -5.174495e-02 9.909837e-01 -5.174495e-02 4.385626e-03 2.678065e-02
6.300000e+09 4.425623e-03 2.698660e-02 9.909380e-01 -5.213604e-02 9.909381e-01 -5.213604e-02 4.425117e-03 2.698665e-02
6.350000e+09 4.465214e-03 2.719232e-02 9.908922e-01 -5.252712e-02 9.908923e-01 -5.252711e-02 4.464697e-03 2.719238e-02
6.400000e+09 4.504890e-03 2.739778e-02 9.908461e-01 -5.291818e-02 9.908463e-01 -5.291818e-02 4.504361e-03 2.739784e-02
6.450000e+09 4.544646e-03 2.760298e-02 9.907999e-01 -5.330923e-02 9.908000e-01 -5.330923e-02 4.544106e-03 2.760304e-02
6.500000e+09 4.584478e-03 2.780793e-02 9.907534e-01 -5.370026e-02 9.907535e-01 -5.370025e-02 4.583928e-03 2.780799e-02
6.550000e+09 4.624383e-03 2.801263e-02 9.907067e-01 -5.409125e-02 9.907069e-01 -5.409124e-02 4.623823e-03 2.801270e-02
6.600000e+09 4.664358e-03 2.821709e-02 9.906598e-01 -5.448221e-02 9.906599e-01 -5.448220e-02 4.663787e-03 2.821716e-02
6.650000e+09 4.704400e-03 2.842132e-02 9.906127e-01 -5.487313e-02 9.906128e-01 -5.487311e-02 4.703818e-03 2.842140e-02
6.700000e+09 4.744506e-03 2.862533e-02 9.905654e-01 -5.526399e-02 9.905655e-01 -5.526398e-02 4.743914e-03 2.862541e-02
6.750000e+09 4.784674e-03 2.882913e-02 9.905178e-01 -5.565481e-02 9.905179e-01 -5.565479e-02 4.784073e-03 2.882921e-02
6.800000e+09 4.824903e-03 2.903271e-02 9.904700e-01 -5.604556e-02 9.904701e-01 -5.604554e-02 4.824292e-03 2.903280e-02
6.850000e+09 4.865191e-03 2.923610e-02 9.904219e-01 -5.643624e-02 9.904220e-01 -5.643622e-02 4.864570e-03 2.923618e-02
6.900000e+09 4.905536e-03 2.943929e-02 9.903737e-01 -5.682685e-02 9.903738e-01 -5.682682e-02 4.904906e-03 2.943938e-02
6.950000e+09 4.945938e-03 2.964229e-02 9.903252e-01 -5.721738e-02 9.903253e-01 -5.721735e-02 4.945299e-03 2.964238e-02
7.000000e+09 4.986397e-03 2.984511e-02 9.902765e-01 -5.760783e-02 9.902766e-01 -5.760780e-02 4.985749e-03 2.984521e-02
7.050000e+09 5.026912e-03 3.004776e-02 9.902275e-01 -5.799818e-02 9.902276e-01 -5.799815e-02 5.026255e-03 3.004786e-02
7.100000e+09 5.067482e-03 3.025024e-02 9.901783e-01 -5.838844e-02 9.901785e-01 -5.838841e-02 5.066817e-03 3.025034e-02
7.150000e+09 5.108109e-03 3.045256e-02 9.901290e-01 -5.877860e-02 9.901291e-01 -5.877857e-02 5.107435e-03 3.045266e-02
7.200000e+09 5.148792e-03 3.065472e-02 9.900793e-01 -5.916866e-02 9.900795e-01 -5.916862e-02 5.148110e-03 3.065483e-02
7.250000e+09 5.189533e-03 3.085674e-02 9.900295e-01 -5.955860e-02 9.900296e-01 -5.955856e-02 5.188842e-03 3.085685e-02
7.300000e+09 5.230331e-03 3.105860e-02 9.899795e-01 -5.994843e-02 9.899796e-01 -5.994839e-02 5.229633e-03 3.105872e-02
7.350000e+09 5.271188e-03 3.126033e-02 9.899292e-01 -6.033814e-02 9.899293e-01 -6.033810e-02 5.270482e-03 3.126045e-02
7.400000e+09 5.312106e-03 3.146193e-02 9.898787e-01 -6.072772e-02 9.898788e-01 -6.072768e-02 5.311392e-03 3.146205e-02
7.450000e+09 5.353086e-03 3.166340e-02 9.898280e-01 -6.111718e-02 9.898282e-01 -6.111714e-02 5.352364e-03 3.166352e-02
7.500000e+09 5.394129e-03 3.186474e-02 9.897771e-01 -6.150650e-02 9.897773e-01 -6.150646e-02 5.393400e-03 3.186487e-02
7.550000e+09 5.435237e-03 3.206597e-02 9.897260e-01 -6.189569e-02 9.897262e-01 -6.189565e-02 5.434500e-03 3.206609e-02
7.600000e+09 5.476411e-03 3.226707e-02 9.896747e-01 -6.228474e-02 9.896749e-01 -6.228470e-02 5.475668e-03 3.226721e-02
7.650000e+09 5.517655e-03 3.246807e-02 9.896233e-01 -6.267365e-02 9.896234e-01 -6.267360e-02 5.516905e-03 3.246821e-02
7.700000e+09 5.558970e-03 3.266897e-02 9.895716e-01 -6.306241e-02 9.895717e-01 -6.306237e-02 5.558213e-03 3.266910e-02
7.750000e+09 5.600359e-03 3.286976e-02 9.895197e-01 -6.345103e-02 9.895198e-01 -6.345098e-02 5.599595e-03 3.286990e-02
7.800000e+09 5.641823e-03 3.307045e-02 9.894676e-01 -6.383949e-02 9.894678e-01 -6.383945e-02 5.641052e-03 3.307059e-02
7.850000e+09 5.683365e-03 3.327104e-02 9.894154e-01 -6.422781e-02 9.894155e-01 -6.422776e-02 5.682588e-03 3.327119e-02
7.900000e+09 5.724988e-03 3.347154e-02 9.893630e-01 -6.461597e-02 9.893631e-01 -6.461592e-02 5.724204e-03 3.347169e-02
7.950000e+09 5.766695e-03 3.367195e-02 9.893104e-01 -6.500397e-02 9.893105e-01 -6.500392e-02 5.765904e-03 3.367211e-02
8.000000e+09 5.808487e-03 3.387228e-02 9.892576e-01 -6.539181e-02 9.892577e-01 -6.539176e-02 5.807690e-03 3.387244e-02
8.050000e+09 5.850368e-03 3.407252e-02 9.892047e-01 -6.577950e-02 9.892048e-01 -6.577945e-02 5.849564e-03 3.407268e-02
8.100000e+09 5.892339e-03 3.427268e-02 9.891516e-01 -6.616702e-02 9.891517e-01 -6.616697e-02 5.891530e-03 3.427284e-02
8.150000e+09 5.934405e-03 3.447275e-02 9.890984e-01 -6.655439e-02 9.890985e-01 -6.655433e-02 5.933590e-03 3.447292e-02
8.200000e+09 5.976568e-03 3.467275e-02 9.890450e-01 -6.694159e-02 9.890451e-01 -6.694154e-02 5.975746e-03 3.467292e-02
8.250000e+09 6.018830e-03 3.487268e-02 9.889914e-01 -6.732863e-02 9.889915e-01 -6.732858e-02 6.018002e-03 3.487285e-02
8.300000e+09 6.061194e-03 3.507252e-02 9.889377e-01 -6.771551e-02 9.889378e-01 -6.771546e-02 6.060360e-03 3.507269e-02
8.350000e+09 6.103663e-03 3.527229e-02 9.888839e-01 -6.810223e-02 9.888840e-01 -6.810217e-02 6.102823e-03 3.527247e-02
8.400000e+09 6.146240e-03 3.547199e-02 9.888299e-01 -6.848878e-02 9.888300e-01 -6.848873e-02 6.145394e-03 3.547217e-02
8.450000e+09 6.188927e-03 3.567162e-02 9.887758e-01 -6.887517e-02 9.887759e-01 -6.887512e-02 6.188075e-03 3.567180e-02
8.500000e+09 6.231727e-03 3.587118e-02 9.887216e-01 -6.926141e-02 9.887217e-01 -6.926135e-02 6.230869e-03 3.587136e-02
8.550000e+09 6.274643e-03 3.607067e-02 9.886672e-01 -6.964748e-02 9.886674e-01 -6.964742e-02 6.273779e-03 3.607085e-02
8.600000e+09 6.317677e-03 3.627008e-02 9.886127e-01 -7.003339e-02 9.886129e-01 -7.003333e-02 6.316807e-03 3.627027e-02
8.650000e+09 6.360831e-03 3.646943e-02 9.885582e-01 -7.041915e-02 9.885583e-01 -7.041909e-02 6.359955e-03 3.646962e-02
8.700000e+09 6.404108e-03 3.666870e-02 9.885034e-01 -7.080474e-02 9.885036e-01 -7.080469e-02 6.403227e-03 3.666890e-02
8.750000e+09 6.447511e-03 3.686791e-02 9.884486e-01 -7.119019e-02 9.884488e-01 -7.119013e-02 6.446624e-03 3.686810e-02
8.800000e+09 6.491042e-03 3.706705e-02 9.883937e-01 -7.157548e-02 9.883938e-01 -7.157542e-02 6.490149e-03 3.706724e-02
8.850000e+09 6.534703e-03 3.726611e-02 9.883387e-01 -7.196061e-02 9.883388e-01 -7.196056e-02 6.533803e-03 3.726631e-02
8.900000e+09 6.578496e-03 3.746511e-02 9.882836e-01 -7.234560e-02 9.882837e-01 -7.234554e-02 6.577590e-03 3.746531e-02
8.950000e+09 6.622423e-03 3.766403e-02 9.882283e-01 -7.273044e-02 9.882285e-01 -7.273038e-02 6.621511e-03 3.766423e-02
9.000000e+09 6.666486e-03 3.786289e-02 9.881730e-01 -7.311514e-02 9.881731e-01 -7.311508e-02 6.665568e-03 3.786309e-02
9.050000e+09 6.710687e-03 3.806166e-02 9.881176e-01 -7.349969e-02 9.881177e-01 -7.349963e-02 6.709763e-03 3.806187e-02
9.100000e+09 6.755028e-03 3.826037e-02 9.880621e-01 -7.388410e-02 9.880622e-01 -7.388404e-02 6.754098e-03 3.826058e-02
9.150000e+09 6.799510e-03 3.845900e-02 9.880065e-01 -7.426837e-02 9.880066e-01 -7.426831e-02 6.798574e-03 3.845921e-02
9.200000e+09 6.844136e-03 3.865756e-02 9.879508e-01 -7.465251e-02 9.879510e-01 -7.465245e-02 6.843194e-03 3.865777e-02
9.250000e+09 6.888906e-03 3.885604e-02 9.878951e-01 -7.503652e-02 9.878952e-01 -7.503646e-02 6.887957e-03 3.885625e-02
9.300000e+09 6.933822e-03 3.905444e-02 9.878392e-01 -7.542039e-02 9.878394e-01 -7.542033e-02 6.932867e-03 3.905465e-02
9.350000e+09 6.978885e-03 3.925276e-02 9.877833e-01 -7.580414e-02 9.877835e-01 -7.580408e-02 6.977924e-03 3.925297e-02
9.400000e+09 7.024096e-03 3.945100e-02 9.877273e-01 -7.618776e-02 9.877275e-01 -7.618771e-02 7.023128e-03 3.945121e-02
9.450000e+09 7.069456e-03 3.964916e-02 9.876713e-01 -7.657127e-02 9.876714e-01 -7.657121e-02 7.068482e-03 3.964937e-02
9.500000e+09 7.114967e-03 3.984723e-02 9.876151e-01 -7.695465e-02 9.876153e-01 -7.695460e-02 7.113986e-03 3.984745e-02
9.550000e+09 7.160629e-03 4.004522e-02 9.875589e-01 -7.733792e-02 9.875591e-01 -7.733787e-02 7.159642e-03 4.004544e-02
9.600000e+09 7.206442e-03 4.024312e-02 9.875026e-01 -7.772108e-02 9.875028e-01 -7.772103e-02 7.205448e-03 4.024334e-02
9.650000e+09 7.252408e-03 4.044094e-02 9.874463e-01 -7.810413e-02 9.874464e-01 -7.810408e-02 7.251407e-03 4.044116e-02
9.700000e+09 7.298526e-03 4.063866e-02 9.873899e-01 -7.848708e-02 9.873900e-01 -7.848702e-02 7.297518e-03 4.063889e-02
9.750000e+09 7.344797e-03 4.083630e-02 9.873334e-01 -7.886992e-02 9.873335e-01 -7.886986e-02 7.343783e-03 4.083652e-02
9.800000e+09 7.391222e-03 4.103384e-02 9.872768e-01 -7.925266e-02 9.872769e-01 -7.925261e-02 7.390201e-03 4.103407e-02
9.850000e+09 7.437800e-03 4.123128e-02 9.872202e-01 -7.963531e-02 9.872203e-01 -7.963525e-02 7.436772e-03 4.123151e-02
9.900000e+09 7.484532e-03 4.142864e-02 9.871635e-01 -8.001786e-02 9.871636e-01 -8.001781e-02 7.483496e-03 4.142887e-02
9.950000e+09 7.531417e-03 4.162589e-02 9.871067e-01 -8.040033e-02 9.871069e-01 -8.040028e-02 7.530374e-03 4.162612e-02
1.000000e+10 7.578456e-03 4.182304e-02 9.870499e-01 -8.078271e-02 9.870500e-01 -8.078266e-02 7.577405e-03 4.182327e-02
1.005000e+10 7.625647e-03 4.202009e-02 9.869930e-01 -8.116500e-02 9.869931e-01 -8.116495e-02 7.624589e-03 4.202033e-02
1.010000e+10 7.672991e-03 4.221704e-02 9.869360e-01 -8.154722e-02 9.869362e-01 -8.154717e-02 7.671926e-03 4.221728e-02
1.015000e+10 7.720487e-03 4.241389e-02 9.868790e-01 -8.192935e-02 9.868791e-01 -8.192931e-02 7.719414e-03 4.241413e-02
1.020000e+10 7.768135e-03 4.261063e-02 9.868219e-01 -8.231142e-02 9.868220e-01 -8.231137e-02 7.767054e-03 4.261087e-02
1.025000e+10 7.815933e-03 4.280727e-02 9.867647e-01 -8.269341e-02 9.867648e-01 -8.269336e-02 7.814845e-03 4.280751e-02
1.030000e+10 7.863882e-03 4.300379e-02 9.867074e-01 -8.307533e-02 9.867076e-01 -8.307529e-02 7.862786e-03 4.300403e-02
1.035000e+10 7.911980e-03 4.320021e-02 9.866501e-01 -8.345719e-02 9.866503e-01 -8.345715e-02 7.910876e-03 4.320045e-02
1.040000e+10 7.960227e-03 4.339651e-02 9.865927e-01 -8.383899e-02 9.865929e-01 -8.383894e-02 7.959115e-03 4.339676e-02
1.045000e+10 8.008621e-03 4.359271e-02 9.865353e-01 -8.422072e-02 9.865354e-01 -8.422068e-02 8.007500e-03 4.359295e-02
1.050000e+10 8.057161e-03 4.378879e-02 9.864777e-01 -8.460240e-02 9.864778e-01 -8.460235e-02 8.056033e-03 4.378903e-02
1.055000e+10 8.105847e-03 4.398475e-02 9.864201e-01 -8.498402e-02 9.864202e-01 -8.498398e-02 8.104710e-03 4.398500e-02
1.060000e+10 8.154676e-03 4.418060e-02 9.863624e-01 -8.536559e-02 9.863625e-01 -8.536555e-02 8.153531e-03 4.418085e-02
1.065000e+10 8.203649e-03 4.437634e-02 9.863046e-01 -8.574710e-02 9.863047e-01 -8.574707e-02 8.202495e-03 4.437659e-02
1.070000e+10 8.252763e-03 4.457195e-02 9.862467e-01 -8.612857e-02 9.862468e-01 -8.612854e-02 8.251601e-03 4.457221e-02
1.075000e+10 8.302017e-03 4.476745e-02 9.861888e-01 -8.651000e-02 9.861889e-01 -8.650996e-02 8.300846e-03 4.476771e-02
1.080000e+10 8.351410e-03 4.496283e-02 9.861307e-01 -8.689137e-02 9.861309e-01 -8.689134e-02 8.350231e-03 4.496309e-02
1.085000e+10 8.400941e-03 4.515809e-02 9.860726e-01 -8.727271e-02 9.860727e-01 -8.727268e-02 8.399752e-03 4.515835e-02
1.090000e+10 8.450607e-03 4.535323e-02 9.860144e-01 -8.765401e-02 9.860145e-01 -8.765397e-02 8.449410e-03 4.535349e-02
1.095000e+10 8.500407e-03 4.554825e-02 9.859561e-01 -8.803526e-02 9.859562e-01 -8.803523e-02 8.499201e-03 4.554851e-02
1.100000e+10 8.550341e-03 4.574314e-02 9.858976e-01 -8.841648e-02 9.858978e-01 -8.841645e-02 8.549125e-03 4.574341e-02
1.105000e+10 8.600405e-03 4.593792e-02 9.858391e-01 -8.879767e-02 9.858393e-01 -8.879764e-02 8.599181e-03 4.593819e-02
1.110000e+10 8.650599e-03 4.613257e-02 9.857805e-01 -8.917882e-02 9.857807e-01 -8.917879e-02 8.649365e-03 4.613284e-02
1.115000e+10 8.700921e-03 4.632710e-02 9.857218e-01 -8.955993e-02 9.857220e-01 -8.955991e-02 8.699678e-03 4.632737e-02
1.120000e+10 8.751369e-03 4.652151e-02 9.856630e-01 -8.994102e-02 9.856631e-01 -8.994100e-02 8.750117e-03 4.652178e-02
1.125000e+10 8.801941e-03 4.671579e-02 9.856041e-01 -9.032207e-02 9.856042e-01 -9.032205e-02 8.800680e-03 4.671607e-02
1.130000e+10 8.852637e-03 4.690995e-02 9.855451e-01 -9.070310e-02 9.855452e-01 -9.070308e-02 8.851366e-03 4.691023e-02
1.135000e+10 8.903454e-03 4.710399e-02 9.854859e-01 -9.108410e-02 9.854861e-01 -9.108408e-02 8.902174e-03 4.710428e-02
1.140000e+10 8.954391e-03 4.729791e-02 9.854267e-01 -9.146506e-02 9.854268e-01 -9.146505e-02 8.953101e-03 4.729820e-02
1.145000e+10 9.005445e-03 4.749171e-02 9.853673e-01 -9.184600e-02 9.853674e-01 -9.184599e-02 9.004146e-03 4.749199e-02
1.150000e+10 9.056616e-03 4.768538e-02 9.853078e-01 -9.222692e-02 9.853079e-01 -9.222690e-02 9.055308e-03 4.768567e-02
1.155000e+10 9.107902e-03 4.787893e-02 9.852482e-01 -9.260780e-02 9.852483e-01 -9.260779e-02 9.106584e-03 4.787923e-02
1.160000e+10 9.159301e-03 4.807236e-02 9.851885e-01 -9.298866e-02 9.851886e-01 -9.298865e-02 9.157973e-03 4.807266e-02
1.165000e+10 9.210811e-03 4.826567e-02 9.851286e-01 -9.336950e-02 9.851287e-01 -9.336949e-02 9.209474e-03 4.826597e-02
1.170000e+10 9.262432e-03 4.845886e-02 9.850687e-01 -9.375031e-02 9.850688e-01 -9.375030e-02 9.261084e-03 4.845917e-02
1.175000e+10 9.314160e-03 4.865194e-02 9.850085e-01 -9.413109e-02 9.850086e-01 -9.413108e-02 9.312803e-03 4.865224e-02
1.180000e+10 9.365996e-03 4.884489e-02 9.849483e-01 -9.451185e-02 9.849484e-01 -9.451184e-02 9.364629e-03 4.884520e-02
1.185000e+10 9.417938e-03 4.903773e-02 9.848879e-01 -9.489258e-02 9.848880e-01 -9.489258e-02 9.416561e-03 4.903804e-02
1.190000e+10 9.469983e-03 4.923045e-02 9.848274e-01 -9.527328e-02 9.848275e-01 -9.527328e-02 9.468597e-03 4.923076e-02
1.195000e+10 9.522131e-03 4.942305e-02 9.847667e-01 -9.565396e-02 9.847668e-01 -9.565396e-02 9.520735e-03 4.942337e-02
1.200000e+10 9.574381e-03 4.961554e-02 9.847059e-01 -9.603461e-02 9.847060e-01 -9.603461e-02 9.572974e-03 4.961587e-02
1.205000e+10 9.626730e-03 4.980792e-02 9.846450e-01 -9.641524e-02 9.846451e-01 -9.641524e-02 9.625314e-03 4.980825e-02
1.210000e+10 9.679179e-03 5.000019e-02 9.845839e-01 -9.679583e-02 9.845840e-01 -9.679584e-02 9.677752e-03 5.000052e-02
1.215000e+10 9.731725e-03 5.019234e-02 9.845227e-01 -9.717640e-02 9.845228e-01 -9.717640e-02 9.730288e-03 5.019268e-02
1.220000e+10 9.784367e-03 5.038439e-02 9.844613e-01 -9.755693e-02 9.844614e-01 -9.755694e-02 9.782921e-03 5.038472e-02
1.225000e+10 9.837105e-03 5.057632e-02 9.843998e-01 -9.793744e-02 9.843998e-01 -9.793745e-02 9.835649e-03 5.057666e-02
1.230000e+10 9.889938e-03 5.076815e-02 9.843381e-01 -9.831791e-02 9.843382e-01 -9.831792e-02 9.888471e-03 5.076850e-02
1.235000e+10 9.942863e-03 5.095988e-02 9.842762e-01 -9.869836e-02 9.842763e-01 -9.869837e-02 9.941387e-03 5.096023e-02
1.240000e+10 9.995882e-03 5.115150e-02 9.842142e-01 -9.907877e-02 9.842143e-01 -9.907878e-02 9.994396e-03 5.115185e-02
1.245000e+10 1.004899e-02 5.134302e-02 9.841521e-01 -9.945914e-02 9.841521e-01 -9.945915e-02 1.004750e-02 5.134337e-02
1.250000e+10 1.010219e-02 5.153443e-02 9.840897e-01 -9.983948e-02 9.840898e-01 -9.983949e-02 1.010069e-02 5.153479e-02
1.255000e+10 1.015548e-02 5.172575e-02 9.840273e-01 -1.002198e-01 9.840273e-01 -1.002198e-01 1.015397e-02 5.172612e-02
1.260000e+10 1.020887e-02 5.191697e-02 9.839646e-01 -1.006000e-01 9.839647e-01 -1.006001e-01 1.020734e-02 5.191734e-02
1.265000e+10 1.026234e-02 5.210809e-02 9.839018e-01 -1.009803e-01 9.839019e-01 -1.009803e-01 1.026080e-02 5.210847e-02
1.270000e+10 1.031589e-02 5.229912e-02 9.838388e-01 -1.013605e-01 9.838389e-01 -1.013605e-01 1.031435e-02 5.229950e-02
1.275000e+10 1.036954e-02 5.249006e-02 9.837757e-01 -1.017406e-01 9.837758e-01 -1.017406e-01 1.036798e-02 5.249044e-02
1.280000e+10 1.042328e-02 5.268090e-02 9.837124e-01 -1.021207e-01 9.837125e-01 -1.021207e-01 1.042171e-02 5.268129e-02
1.285000e+10 1.047710e-02 5.287165e-02 9.836489e-01 -1.025008e-01 9.836490e-01 -1.025008e-01 1.047552e-02 5.287205e-02
1.290000e+10 1.053101e-02 5.306232e-02 9.835853e-01 -1.028808e-01 9.835854e-01 -1.028808e-01 1.052942e-02 5.306272e-02
1.295000e+10 1.058500e-02 5.325290e-02 9.835215e-01 -1.032607e-01 9.835215e-01 -1.032608e-01 1.058341e-02 5.325330e-02
1.300000e+10 1.063909e-02 5.344340e-02 9.834575e-01 -1.036406e-01 9.834576e-01 -1.036407e-01 1.063748e-02 5.344380e-02
1.305000e+10 1.069326e-02 5.363381e-02 9.833933e-01 -1.040205e-01 9.833934e-01 -1.040205e-01 1.069164e-02 5.363422e-02
1.310000e+10 1.074751e-02 5.382414e-02 9.833290e-01 -1.044003e-01 9.833291e-01 -1.044003e-01 1.074589e-02 5.382455e-02
1.315000e+10 1.080186e-02 5.401439e-02 9.832645e-01 -1.047801e-01 9.832646e-01 -1.047801e-01 1.080022e-02 5.401481e-02
1.320000e+10 1.085629e-02 5.420456e-02 9.831999e-01 -1.051598e-01 9.831999e-01 -1.051598e-01 1.085464e-02 5.420499e-02
1.325000e+10 1.091081e-02 5.439466e-02 9.831350e-01 -1.055394e-01 9.831351e-01 -1.055395e-01 1.090915e-02 5.439509e-02
1.330000e+10 1.096542e-02 5.458468e-02 9.830700e-01 -1.059190e-01 9.830700e-01 -1.059191e-01 1.096375e-02 5.458512e-02
1.335000e+10 1.102011e-02 5.477463e-02 9.830048e-01 -1.062986e-01 9.830048e-01 -1.062986e-01 1.101844e-02 5.477507e-02
1.340000e+10 1.107490e-02 5.496451e-02 9.829394e-01 -1.066780e-01 9.829395e-01 -1.066781e-01 1.107321e-02 5.496495e-02
1.345000e+10 1.112977e-02 5.515431e-02 9.828739e-01 -1.070575e-01 9.828739e-01 -1.070575e-01 1.112808e-02 5.515476e-02
1.350000e+10 1.118473e-02 5.534405e-02 9.828082e-01 -1.074368e-01 9.828082e-01 -1.074368e-01 1.118303e-02 5.534450e-02
1.355000e+10 1.123979e-02 5.553372e-02 9.827423e-01 -1.078161e-01 9.827423e-01 -1.078161e-01 1.123807e-02 5.553418e-02
1.360000e+10 1.129493e-02 5.572333e-02 9.826763e-01 -1.081953e-01 9.826763e-01 -1.081954e-01 1.129321e-02 5.572379e-02
1.365000e+10 1.135017e-02 5.591287e-02 9.826100e-01 -1.085745e-01 9.826101e-01 -1.085745e-01 1.134844e-02 5.591334e-02
1.370000e+10 1.140550e-02 5.610235e-02 9.825436e-01 -1.089536e-01 9.825437e-01 -1.089536e-01 1.140375e-02 5.610282e-02
1.375000e+10 1.146092e-02 5.629177e-02 9.824771e-01 -1.093326e-01 9.824771e-01 -1.093326e-01 1.145917e-02 5.629224e-02
1.380000e+10 1.151644e-02 5.648112e-02 9.824103e-01 -1.097116e-01 9.824103e-01 -1.097116e-01 1.151468e-02 5.648160e-02
1.385000e+10 1.157205e-02 5.667042e-02 9.823434e-01 -1.100905e-01 9.823434e-01 -1.100905e-01 1.157028e-02 5.667090e-02
1.390000e+10 1.162776e-02 5.685966e-02 9.822763e-01 -1.104693e-01 9.822763e-01 -1.104693e-01 1.162598e-02 5.686015e-02
1.395000e+10 1.168357e-02 5.704884e-02 9.822091e-01 -1.108480e-01 9.822091e-01 -1.108480e-01 1.168177e-02 5.704934e-02
1.400000e+10 1.173947e-02 5.723797e-02 9.821416e-01 -1.112267e-01 9.821416e-01 -1.112267e-01 1.173767e-02 5.723847e-02
1.405000e+10 1.179547e-02 5.742704e-02 9.820740e-01 -1.116053e-01 9.820740e-01 -1.116053e-01 1.179366e-02 5.742755e-02
1.410000e+10 1.185158e-02 5.761606e-02 9.820063e-01 -1.119838e-01 9.820063e-01 -1.119838e-01 1.184975e-02 5.761657e-02
1.415000e+10 1.190778e-02 5.780503e-02 9.819383e-01 -1.123622e-01 9.819383e-01 -1.123623e-01 1.190595e-02 5.780554e-02
1.420000e+10 1.196409e-02 5.799394e-02 9.818703e-01 -1.127406e-01 9.818702e-01 -1.127406e-01 1.196225e-02 5.799446e-02
1.425000e+10 1.202050e-02 5.818281e-02 9.818020e-01 -1.131189e-01 9.818020e-01 -1.131189e-01 1.201865e-02 5.818333e-02
1.430000e+10 1.207702e-02 5.837162e-02 9.817336e-01 -1.134971e-01 9.817336e-01 -1.134971e-01 1.207515e-02 5.837215e-02
1.435000e+10 1.213364e-02 5.856038e-02 9.816650e-01 -1.138753e-01 9.816650e-01 -1.138753e-01 1.213177e-02 5.856091e-02
1.440000e+10 1.219037e-02 5.874910e-02 9.815962e-01 -1.142533e-01 9.815962e-01 -1.142533e-01 1.218848e-02 5.874963e-02
1.445000e+10 1.224721e-02 5.893777e-02 9.815273e-01 -1.146313e-01 9.815273e-01 -1.146313e-01 1.224531e-02 5.893831e-02
1.450000e+10 1.230416e-02 5.912639e-02 9.814583e-01 -1.150092e-01 9.814582e-01 -1.150092e-01 1.230225e-02 5.912693e-02
1.455000e+10 1.236122e-02 5.931496e-02 9.813890e-01 -1.153870e-01 9.813890e-01 -1.153871e-01 1.235930e-02 5.931551e-02
1.460000e+10 1.241839e-02 5.950348e-02 9.813196e-01 -1.157648e-01 9.813196e-01 -1.157648e-01 1.241646e-02 5.950404e-02
1.465000e+10 1.247567e-02 5.969196e-02 9.812501e-01 -1.161425e-01 9.812501e-01 -1.161425e-01 1.247374e-02 5.969252e-02
1.470000e+10 1.253307e-02 5.988040e-02 9.811804e-01 -1.165200e-01 9.811804e-01 -1.165201e-01 1.253113e-02 5.988096e-02
1.475000e+10 1.259059e-02 6.006878e-02 9.811105e-01 -1.168976e-01 9.811105e-01 -1.168976e-01 1.258863e-02 6.006935e-02
1.480000e+10 1.264822e-02 6.025712e-02 9.810405e-01 -1.172750e-01 9.810405e-01 -1.172750e-01 1.264626e-02 6.025769e-02
1.485000e+10 1.270598e-02 6.044542e-02 9.809704e-01 -1.176524e-01 9.809703e-01 -1.176524e-01 1.270400e-02 6.044599e-02
1.490000e+10 1.276385e-02 6.063367e-02 9.809000e-01 -1.180296e-01 9.809000e-01 -1.180296e-01 1.276186e-02 6.063425e-02
1.495000e+10 1.282184e-02 6.082188e-02 9.808296e-01 -1.184068e-01 9.808295e-01 -1.184068e-01 1.281985e-02 6.082246e-02
1.500000e+10 1.287996e-02 6.101003e-02 9.807590e-01 -1.187840e-01 9.807589e-01 -1.187840e-01 1.287795e-02 6.101062e-02
1.505000e+10 1.293820e-02 6.119815e-02 9.806882e-01 -1.191610e-01 9.806881e-01 -1.191610e-01 1.293618e-02 6.119874e-02
1.510000e+10 1.299656e-02 6.138622e-02 9.806173e-01 -1.195380e-01 9.806172e-01 -1.195380e-01 1.299453e-02 6.138681e-02
1.515000e+10 1.305505e-02 6.157424e-02 9.805462e-01 -1.199149e-01 9.805462e-01 -1.199149e-01 1.305301e-02 6.157483e-02
1.520000e+10 1.311366e-02 6.176221e-02 9.804750e-01 -1.202917e-01 9.804750e-01 -1.202917e-01 1.311161e-02 6.176281e-02
1.525000e+10 1.317241e-02 6.195014e-02 9.804037e-01 -1.206684e-01 9.804036e-01 -1.206684e-01 1.317035e-02 6.195075e-02
1.530000e+10 1.323128e-02 6.213803e-02 9.803322e-01 -1.210451e-01 9.803321e-01 -1.210451e-01 1.322921e-02 6.213863e-02
1.535000e+10 1.329028e-02 6.232586e-02 9.802605e-01 -1.214217e-01 9.802605e-01 -1.214217e-01 1.328820e-02 6.232647e-02
1.540000e+10 1.334941e-02 6.251365e-02 9.801887e-01 -1.217982e-01 9.801887e-01 -1.217982e-01 1.334732e-02 6.251426e-02
1.545000e+10 1.340868e-02 6.270139e-02 9.801168e-01 -1.221747e-01 9.801168e-01 -1.221747e-01 1.340657e-02 6.270201e-02
1.550000e+10 1.346807e-02 6.288908e-02 9.800447e-01 -1.225511e-01 9.800447e-01 -1.225511e-01 1.346596e-02 6.288970e-02
1.555000e+10 1.352760e-02 6.307672e-02 9.799725e-01 -1.229274e-01 9.799725e-01 -1.229274e-01 1.352548e-02 6.307735e-02
1.560000e+10 1.358727e-02 6.326432e-02 9.799002e-01 -1.233037e-01 9.799001e-01 -1.233036e-01 1.358513e-02 6.326494e-02
1.565000e+10 1.364707e-02 6.345186e-02 9.798277e-01 -1.236799e-01 9.798276e-01 -1.236798e-01 1.364492e-02 6.345249e-02
1.570000e+10 1.370700e-02 6.363935e-02 9.797551e-01 -1.240560e-01 9.797550e-01 -1.240559e-01 1.370484e-02 6.363999e-02
1.575000e+10 1.376707e-02 6.382679e-02 9.796823e-01 -1.244320e-01 9.796823e-01 -1.244320e-01 1.376490e-02 6.382743e-02
1.580000e+10 1.382728e-02 6.401418e-02 9.796094e-01 -1.248080e-01 9.796094e-01 -1.248080e-01 1.382509e-02 6.401482e-02
1.585000e+10 1.388762e-02 6.420151e-02 9.795364e-01 -1.251839e-01 9.795363e-01 -1.251839e-01 1.388543e-02 6.420216e-02
1.590000e+10 1.394810e-02 6.438880e-02 9.794632e-01 -1.255598e-01 9.794632e-01 -1.255598e-01 1.394590e-02 6.438944e-02
1.595000e+10 1.400872e-02 6.457602e-02 9.793899e-01 -1.259356e-01 9.793898e-01 -1.259356e-01 1.400650e-02 6.457667e-02
1.600000e+10 1.406948e-02 6.476319e-02 9.793165e-01 -1.263114e-01 9.793164e-01 -1.263113e-01 1.406725e-02 6.476385e-02
1.605000e+10 1.413038e-02 6.495031e-02 9.792429e-01 -1.266871e-01 9.792428e-01 -1.266870e-01 1.412814e-02 6.495097e-02
1.610000e+10 1.419142e-02 6.513737e-02 9.791692e-01 -1.270627e-01 9.791691e-01 -1.270627e-01 1.418916e-02 6.513803e-02
1.615000e+10 1.425259e-02 6.532437e-02 9.790953e-01 -1.274383e-01 9.790952e-01 -1.274382e-01 1.425032e-02 6.532503e-02
1.620000e+10 1.431391e-02 6.551131e-02 9.790213e-01 -1.278138e-01 9.790212e-01 -1.278138e-01 1.431163e-02 6.551198e-02
1.625000e+10 1.437536e-02 6.569820e-02 9.789472e-01 -1.281893e-01 9.789471e-01 -1.281892e-01 1.437307e-02 6.569887e-02
1.630000e+10 1.443696e-02 6.588502e-02 9.788729e-01 -1.285647e-01 9.788729e-01 -1.285647e-01 1.443465e-02 6.588570e-02
1.635000e+10 1.449869e-02 6.607178e-02 9.787985e-01 -1.289401e-01 9.787985e-01 -1.289400e-01 1.449638e-02 6.607246e-02
1.640000e+10 1.456057e-02 6.625849e-02 9.787240e-01 -1.293154e-01 9.787239e-01 -1.293154e-01 1.455824e-02 6.625917e-02
1.645000e+10 1.462258e-02 6.644513e-02 9.786493e-01 -1.296907e-01 9.786493e-01 -1.296906e-01 1.462024e-02 6.644581e-02
1.650000e+10 1.468474e-02 6.663170e-02 9.785745e-01 -1.300659e-01 9.785745e-01 -1.300659e-01 1.468238e-02 6.663239e-02
1.655000e+10 1.474703e-02 6.681822e-02 9.784996e-01 -1.304411e-01 9.784995e-01 -1.304411e-01 1.474466e-02 6.681891e-02
1.660000e+10 1.480946e-02 6.700466e-02 9.784245e-01 -1.308163e-01 9.784244e-01 -1.308162e-01 1.480708e-02 6.700536e-02
1.665000e+10 1.487203e-02 6.719105e-02 9.783493e-01 -1.311914e-01 9.783492e-01 -1.311913e-01 1.486964e-02 6.719174e-02
1.670000e+10 1.493474e-02 6.737736e-02 9.782739e-01 -1.315665e-01 9.782739e-01 -1.315664e-01 1.493233e-02 6.737806e-02
1.675000e+10 1.499759e-02 6.756361e-02 9.781984e-01 -1.319415e-01 9.781984e-01 -1.319414e-01 1.499517e-02 6.756432e-02
1.680000e+10 1.506058e-02 6.774979e-02 9.781228e-01 -1.323165e-01 9.781227e-01 -1.323164e-01 1.505814e-02 6.775050e-02
1.685000e+10 1.512370e-02 6.793591e-02 9.780470e-01 -1.326914e-01 9.780470e-01 -1.326913e-01 1.512124e-02 6.793662e-02
1.690000e+10 1.518696e-02 6.812195e-02 9.779711e-01 -1.330663e-01 9.779710e-01 -1.330662e-01 1.518449e-02 6.812267e-02
1.695000e+10 1.525035e-02 6.830793e-02 9.778950e-01 -1.334412e-01 9.778950e-01 -1.334411e-01 1.524787e-02 6.830865e-02
1.700000e+10 1.531388e-02 6.849384e-02 9.778188e-01 -1.338161e-01 9.778188e-01 -1.338160e-01 1.531139e-02 6.849456e-02
1.705000e+10 1.537755e-02 6.867967e-02 9.777425e-01 -1.341909e-01 9.777424e-01 -1.341908e-01 1.537504e-02 6.868040e-02
1.710000e+10 1.544135e-02 6.886544e-02 9.776660e-01 -1.345656e-01 9.776660e-01 -1.345655e-01 1.543882e-02 6.886616e-02
1.715000e+10 1.550528e-02 6.905113e-02 9.775894e-01 -1.349404e-01 9.775893e-01 -1.349403e-01 1.550274e-02 6.905186e-02
1.720000e+10 1.556934e-02 6.923675e-02 9.775126e-01 -1.353151e-01 9.775125e-01 -1.353150e-01 1.556679e-02 6.923749e-02
1.725000e+10 1.563354e-02 6.942230e-02 9.774357e-01 -1.356898e-01 9.774356e-01 -1.356897e-01 1.563097e-02 6.942304e-02
1.730000e+10 1.569787e-02 6.960778e-02 9.773586e-01 -1.360644e-01 9.773586e-01 -1.360643e-01 1.569528e-02 6.960852e-02
1.735000e+10 1.576233e-02 6.979319e-02 9.772814e-01 -1.364391e-01 9.772813e-01 -1.364390e-01 1.575972e-02 6.979393e-02
1.740000e+10 1.582691e-02 6.997852e-02 9.772040e-01 -1.368137e-01 9.772040e-01 -1.368136e-01 1.582430e-02 6.997926e-02
1.745000e+10 1.589163e-02 7.016377e-02 9.771265e-01 -1.371883e-01 9.771265e-01 -1.371881e-01 1.588900e-02 7.016453e-02
1.750000e+10 1.595647e-02 7.034896e-02 9.770488e-01 -1.375628e-01 9.770488e-01 -1.375627e-01 1.595382e-02 7.034971e-02
1.755000e+10 1.602144e-02 7.053407e-02 9.769710e-01 -1.379373e-01 9.769710e-01 -1.379372e-01 1.601878e-02 7.053483e-02
1.760000e+10 1.608653e-02 7.071911e-02 9.768930e-01 -1.383118e-01 9.768930e-01 -1.383117e-01 1.608385e-02 7.071987e-02
1.765000e+10 1.615175e-02 7.090407e-02 9.768149e-01 -1.386863e-01 9.768149e-01 -1.386862e-01 1.614906e-02 7.090484e-02
1.770000e+10 1.621710e-02 7.108896e-02 9.767366e-01 -1.390607e-01 9.767366e-01 -1.390606e-01 1.621438e-02 7.108973e-02
1.775000e+10 1.628256e-02 7.127378e-02 9.766581e-01 -1.394352e-01 9.766581e-01 -1.394350e-01 1.627983e-02 7.127455e-02
1.780000e+10 1.634815e-02 7.145852e-02 9.765795e-01 -1.398095e-01 9.765795e-01 -1.398094e-01 1.634540e-02 7.145930e-02
1.785000e+10 1.641385e-02 7.164319e-02 9.765008e-01 -1.401839e-01 9.765008e-01 -1.401838e-01 1.641109e-02 7.164398e-02
1.790000e+10 1.647968e-02 7.182779e-02 9.764219e-01 -1.405583e-01 9.764218e-01 -1.405582e-01 1.647690e-02 7.182858e-02
1.795000e+10 1.654563e-02 7.201231e-02 9.763428e-01 -1.409326e-01 9.763428e-01 -1.409325e-01 1.654283e-02 7.201311e-02
1.800000e+10 1.661169e-02 7.219677e-02 9.762635e-01 -1.413069e-01 9.762635e-01 -1.413068e-01 1.660888e-02 7.219756e-02
1.805000e+10 1.667787e-02 7.238115e-02 9.761841e-01 -1.416812e-01 9.761841e-01 -1.416810e-01 1.667504e-02 7.238195e-02
1.810000e+10 1.674416e-02 7.256545e-02 9.761045e-01 -1.420554e-01 9.761045e-01 -1.420553e-01 1.674132e-02 7.256626e-02
1.815000e+10 1.681057e-02 7.274969e-02 9.760248e-01 -1.424296e-01 9.760248e-01 -1.424295e-01 1.680771e-02 7.275050e-02
1.820000e+10 1.687710e-02 7.293386e-02 9.759449e-01 -1.428038e-01 9.759449e-01 -1.428037e-01 1.687422e-02 7.293467e-02
1.825000e+10 1.694373e-02 7.311795e-02 9.758648e-01 -1.431780e-01 9.758648e-01 -1.431779e-01 1.694083e-02 7.311877e-02
1.830000e+10 1.701048e-02 7.330198e-02 9.757846e-01 -1.435521e-01 9.757846e-01 -1.435520e-01 1.700756e-02 7.330281e-02
1.835000e+10 1.707734e-02 7.348594e-02 9.757042e-01 -1.439263e-01 9.757042e-01 -1.439261e-01 1.707440e-02 7.348677e-02
1.840000e+10 1.714431e-02 7.366983e-02 9.756236e-01 -1.443004e-01 9.756236e-01 -1.443002e-01 1.714135e-02 7.367066e-02
1.845000e+10 1.721138e-02 7.385365e-02 9.755428e-01 -1.446744e-01 9.755428e-01 -1.446743e-01 1.720841e-02 7.385449e-02
1.850000e+10 1.727857e-02 7.403740e-02 9.754619e-01 -1.450485e-01 9.754619e-01 -1.450483e-01 1.727558e-02 7.403825e-02
1.855000e+10 1.734586e-02 7.422109e-02 9.753808e-01 -1.454225e-01 9.753808e-01 -1.454224e-01 1.734286e-02 7.422195e-02
1.860000e+10 1.741326e-02 7.440472e-02 9.752995e-01 -1.457964e-01 9.752995e-01 -1.457963e-01 1.741024e-02 7.440558e-02
1.865000e+10 1.748077e-02 7.458828e-02 9.752181e-01 -1.461704e-01 9.752181e-01 -1.461703e-01 1.747772e-02 7.458914e-02
1.870000e+10 1.754838e-02 7.477177e-02 9.751365e-01 -1.465443e-01 9.751365e-01 -1.465442e-01 1.754532e-02 7.477265e-02
1.875000e+10 1.761609e-02 7.495521e-02 9.750547e-01 -1.469182e-01 9.750547e-01 -1.469181e-01 1.761301e-02 7.495609e-02
1.880000e+10 1.768391e-02 7.513858e-02 9.749727e-01 -1.472920e-01 9.749727e-01 -1.472919e-01 1.768081e-02 7.513946e-02
1.885000e+10 1.775183e-02 7.532189e-02 9.748905e-01 -1.476659e-01 9.748906e-01 -1.476658e-01 1.774872e-02 7.532278e-02
1.890000e+10 1.781986e-02 7.550515e-02 9.748082e-01 -1.480396e-01 9.748083e-01 -1.480395e-01 1.781672e-02 7.550604e-02
1.895000e+10 1.788798e-02 7.568834e-02 9.747257e-01 -1.484134e-01 9.747258e-01 -1.484133e-01 1.788483e-02 7.568925e-02
1.900000e+10 1.795621e-02 7.587148e-02 9.746430e-01 -1.487871e-01 9.746431e-01 -1.487870e-01 1.795304e-02 7.587239e-02
1.905000e+10 1.802454e-02 7.605456e-02 9.745602e-01 -1.491608e-01 9.745602e-01 -1.491607e-01 1.802135e-02 7.605548e-02
1.910000e+10 1.809297e-02 7.623759e-02 9.744771e-01 -1.495344e-01 9.744772e-01 -1.495343e-01 1.808976e-02 7.623851e-02
1.915000e+10 1.816150e-02 7.642056e-02 9.743939e-01 -1.499080e-01 9.743940e-01 -1.499079e-01 1.815827e-02 7.642149e-02
1.920000e+10 1.823013e-02 7.660348e-02 9.743105e-01 -1.502816e-01 9.743106e-01 -1.502815e-01 1.822688e-02 7.660442e-02
1.925000e+10 1.829886e-02 7.678635e-02 9.742270e-01 -1.506551e-01 9.742270e-01 -1.506550e-01 1.829560e-02 7.678730e-02
1.930000e+10 1.836770e-02 7.696917e-02 9.741432e-01 -1.510285e-01 9.741433e-01 -1.510284e-01 1.836441e-02 7.697012e-02
1.935000e+10 1.843663e-02 7.715194e-02 9.740593e-01 -1.514020e-01 9.740593e-01 -1.514019e-01 1.843332e-02 7.715290e-02
1.940000e+10 1.850566e-02 7.733467e-02 9.739752e-01 -1.517753e-01 9.739752e-01 -1.517753e-01 1.850233e-02 7.733563e-02
1.945000e+10 1.857479e-02 7.751734e-02 9.738909e-01 -1.521487e-01 9.738910e-01 -1.521486e-01 1.857144e-02 7.751831e-02
1.950000e+10 1.864401e-02 7.769997e-02 9.738064e-01 -1.525220e-01 9.738065e-01 -1.525219e-01 1.864065e-02 7.770095e-02
1.955000e+10 1.871334e-02 7.788256e-02 9.737218e-01 -1.528952e-01 9.737219e-01 -1.528951e-01 1.870996e-02 7.788354e-02
1.960000e+10 1.878277e-02 7.806510e-02 9.736370e-01 -1.532684e-01 9.736370e-01 -1.532683e-01 1.877937e-02 7.806609e-02
1.965000e+10 1.885230e-02 7.824760e-02 9.735520e-01 -1.536415e-01 9.735521e-01 -1.536414e-01 1.884888e-02 7.824860e-02
1.970000e+10 1.892193e-02 7.843006e-02 9.734668e-01 -1.540146e-01 9.734669e-01 -1.540145e-01 1.891849e-02 7.843107e-02
1.975000e+10 1.899166e-02 7.861248e-02 9.733815e-01 -1.543876e-01 9.733815e-01 -1.543876e-01 1.898820e-02 7.861349e-02
1.980000e+10 1.906149e-02 7.879486e-02 9.732960e-01 -1.547606e-01 9.732960e-01 -1.547605e-01 1.905801e-02 7.879588e-02
1.985000e+10 1.913142e-02 7.897720e-02 9.732103e-01 -1.551335e-01 9.732103e-01 -1.551335e-01 1.912792e-02 7.897823e-02
1.990000e+10 1.920145e-02 7.915951e-02 9.731244e-01 -1.555064e-01 9.731245e-01 -1.555063e-01 1.919793e-02 7.916055e-02
1.995000e+10 1.927159e-02 7.934178e-02 9.730384e-01 -1.558792e-01 9.730384e-01 -1.558791e-01 1.926805e-02 7.934283e-02
2.000000e+10 1.934183e-02 7.952402e-02 9.729522e-01 -1.562519e-01 9.729522e-01 -1.562519e-01 1.933827e-02 7.952507e-02
2.005000e+10 1.941217e-02 7.970622e-02 9.728658e-01 -1.566246e-01 9.728659e-01 -1.566246e-01 1.940859e-02 7.970729e-02
2.010000e+10 1.948261e-02 7.988839e-02 9.727792e-01 -1.569972e-01 9.727793e-01 -1.569972e-01 1.947901e-02 7.988946e-02
2.015000e+10 1.955316e-02 8.007053e-02 9.726925e-01 -1.573698e-01 9.726926e-01 -1.573698e-01 1.954954e-02 8.007161e-02
2.020000e+10 1.962381e-02 8.025264e-02 9.726057e-01 -1.577423e-01 9.726057e-01 -1.577423e-01 1.962017e-02 8.025373e-02
2.025000e+10 1.969457e-02 8.043472e-02 9.725186e-01 -1.581147e-01 9.725187e-01 -1.581147e-01 1.969091e-02 8.043582e-02
2.030000e+10 1.976544e-02 8.061677e-02 9.724314e-01 -1.584871e-01 9.724315e-01 -1.584871e-01 1.976176e-02 8.061788e-02
2.035000e+10 1.983641e-02 8.079879e-02 9.723440e-01 -1.588594e-01 9.723441e-01 -1.588594e-01 1.983272e-02 8.079991e-02
2.040000e+10 1.990750e-02 8.098078e-02 9.722565e-01 -1.592317e-01 9.722566e-01 -1.592316e-01 1.990378e-02 8.098191e-02
2.045000e+10 1.997869e-02 8.116275e-02 9.721688e-01 -1.596038e-01 9.721689e-01 -1.596038e-01 1.997495e-02 8.116389e-02
2.050000e+10 2.004999e-02 8.134469e-02 9.720809e-01 -1.599760e-01 9.720810e-01 -1.599759e-01 2.004623e-02 8.134584e-02
2.055000e+10 2.012140e-02 8.152661e-02 9.719929e-01 -1.603480e-01 9.719930e-01 -1.603480e-01 2.011762e-02 8.152776e-02
2.060000e+10 2.019293e-02 8.170850e-02 9.719048e-01 -1.607200e-01 9.719048e-01 -1.607200e-01 2.018913e-02 8.170966e-02
2.065000e+10 2.026457e-02 8.189037e-02 9.718164e-01 -1.610919e-01 9.718165e-01 -1.610919e-01 2.026075e-02 8.189154e-02
2.070000e+10 2.033632e-02 8.207221e-02 9.717280e-01 -1.614637e-01 9.717280e-01 -1.614637e-01 2.033248e-02 8.207339e-02
2.075000e+10 2.040819e-02 8.225403e-02 9.716393e-01 -1.618355e-01 9.716394e-01 -1.618355e-01 2.040433e-02 8.225521e-02
2.080000e+10 2.048017e-02 8.243582e-02 9.715506e-01 -1.622072e-01 9.715506e-01 -1.622072e-01 2.047629e-02 8.243702e-02
2.085000e+10 2.055228e-02 8.261759e-02 9.714616e-01 -1.625789e-01 9.714617e-01 -1.625788e-01 2.054838e-02 8.261880e-02
2.090000e+10 2.062450e-02 8.279934e-02 9.713726e-01 -1.629504e-01 9.713726e-01 -1.629504e-01 2.062058e-02 8.280055e-02
2.095000e+10 2.069684e-02 8.298106e-02 9.712833e-01 -1.633219e-01 9.712834e-01 -1.633219e-01 2.069290e-02 8.298229e-02
2.100000e+10 2.076930e-02 8.316277e-02 9.711940e-01 -1.636934e-01 9.711941e-01 -1.636934e-01 2.076534e-02 8.316400e-02
2.105000e+10 2.084188e-02 8.334444e-02 9.711045e-01 -1.640647e-01 9.711046e-01 -1.640647e-01 2.083790e-02 8.334569e-02
2.110000e+10 2.091459e-02 8.352610e-02 9.710148e-01 -1.644360e-01 9.710149e-01 -1.644360e-01 2.091059e-02 8.352735e-02
2.115000e+10 2.098742e-02 8.370773e-02 9.709251e-01 -1.648072e-01 9.709251e-01 -1.648072e-01 2.098340e-02 8.370899e-02
2.120000e+10 2.106037e-02 8.388934e-02 9.708351e-01 -1.651784e-01 9.708352e-01 -1.651784e-01 2.105633e-02 8.389061e-02
2.125000e+10 2.113346e-02 8.407093e-02 9.707451e-01 -1.655495e-01 9.707451e-01 -1.655495e-01 2.112939e-02 8.407221e-02
2.130000e+10 2.120667e-02 8.425249e-02 9.706549e-01 -1.659205e-01 9.706550e-01 -1.659205e-01 2.120258e-02 8.425378e-02
2.135000e+10 2.128000e-02 8.443403e-02 9.705646e-01 -1.662915e-01 9.705646e-01 -1.662915e-01 2.127590e-02 8.443533e-02
2.140000e+10 2.135347e-02 8.461554e-02 9.704741e-01 -1.666624e-01 9.704742e-01 -1.666624e-01 2.134935e-02 8.461685e-02
2.145000e+10 2.142707e-02 8.479703e-02 9.703835e-01 -1.670332e-01 9.703836e-01 -1.670332e-01 2.142293e-02 8.479834e-02
2.150000e+10 2.150080e-02 8.497849e-02 9.702928e-01 -1.674040e-01 9.702929e-01 -1.674040e-01 2.149664e-02 8.497982e-02
2.155000e+10 2.157467e-02 8.515992e-02 9.702020e-01 -1.677747e-01 9.702020e-01 -1.677747e-01 2.157049e-02 8.516126e-02
2.160000e+10 2.164867e-02 8.534133e-02 9.701110e-01 -1.681453e-01 9.701111e-01 -1.681453e-01 2.164446e-02 8.534268e-02
2.165000e+10 2.172280e-02 8.552271e-02 9.700199e-01 -1.685159e-01 9.700200e-01 -1.685159e-01 2.171858e-02 8.552407e-02
2.170000e+10 2.179707e-02 8.570406e-02 9.699287e-01 -1.688864e-01 9.699288e-01 -1.688865e-01 2.179283e-02 8.570543e-02
2.175000e+10 2.187148e-02 8.588538e-02 9.698374e-01 -1.692569e-01 9.698374e-01 -1.692569e-01 2.186721e-02 8.588676e-02
2.180000e+10 2.194602e-02 8.606667e-02 9.697459e-01 -1.696273e-01 9.697460e-01 -1.696273e-01 2.194174e-02 8.606806e-02
2.185000e+10 2.202071e-02 8.624793e-02 9.696543e-01 -1.699976e-01 9.696544e-01 -1.699977e-01 2.201640e-02 8.624933e-02
2.190000e+10 2.209553e-02 8.642916e-02 9.695626e-01 -1.703679e-01 9.695627e-01 -1.703680e-01 2.209120e-02 8.643056e-02
2.195000e+10 2.217049e-02 8.661035e-02 9.694708e-01 -1.707382e-01 9.694709e-01 -1.707382e-01 2.216615e-02 8.661177e-02
2.200000e+10 2.224560e-02 8.679151e-02 9.693789e-01 -1.711084e-01 9.693790e-01 -1.711084e-01 2.224123e-02 8.679294e-02
2.205000e+10 2.232084e-02 8.697264e-02 9.692869e-01 -1.714785e-01 9.692869e-01 -1.714785e-01 2.231646e-02 8.697407e-02
2.210000e+10 2.239623e-02 8.715372e-02 9.691947e-01 -1.718486e-01 9.691947e-01 -1.718486e-01 2.239182e-02 8.715516e-02
2.215000e+10 2.247176e-02 8.733477e-02 9.691024e-01 -1.722186e-01 9.691025e-01 -1.722187e-01 2.246733e-02 8.733622e-02
2.220000e+10 2.254744e-02 8.751578e-02 9.690101e-01 -1.725886e-01 9.690101e-01 -1.725887e-01 2.254299e-02 8.751724e-02
2.225000e+10 2.262326e-02 8.769675e-02 9.689176e-01 -1.729585e-01 9.689176e-01 -1.729586e-01 2.261879e-02 8.769822e-02
2.230000e+10 2.269922e-02 8.787767e-02 9.688249e-01 -1.733285e-01 9.688250e-01 -1.733285e-01 2.269473e-02 8.787915e-02
2.235000e+10 2.277533e-02 8.805855e-02 9.687322e-01 -1.736983e-01 9.687323e-01 -1.736984e-01 2.277082e-02 8.806004e-02
2.240000e+10 2.285158e-02 8.823939e-02 9.686394e-01 -1.740681e-01 9.686394e-01 -1.740682e-01 2.284705e-02 8.824089e-02
2.245000e+10 2.292798e-02 8.842018e-02 9.685464e-01 -1.744379e-01 9.685465e-01 -1.744380e-01 2.292343e-02 8.842169e-02
2.250000e+10 2.300452e-02 8.860093e-02 9.684534e-01 -1.748077e-01 9.684534e-01 -1.748077e-01 2.299995e-02 8.860244e-02
2.255000e+10 2.308121e-02 8.878162e-02 9.683602e-01 -1.751774e-01 9.683602e-01 -1.751774e-01 2.307662e-02 8.878315e-02
2.260000e+10 2.315805e-02 8.896226e-02 9.682669e-01 -1.755471e-01 9.682670e-01 -1.755471e-01 2.315343e-02 8.896380e-02
2.265000e+10 2.323503e-02 8.914285e-02 9.681736e-01 -1.759167e-01 9.681736e-01 -1.759168e-01 2.323039e-02 8.914440e-02
2.270000e+10 2.331215e-02 8.932339e-02 9.680800e-01 -1.762863e-01 9.680801e-01 -1.762864e-01 2.330750e-02 8.932495e-02
2.275000e+10 2.338942e-02 8.950387e-02 9.679864e-01 -1.766559e-01 9.679864e-01 -1.766560e-01 2.338475e-02 8.950544e-02
2.280000e+10 2.346684e-02 8.968430e-02 9.678927e-01 -1.770255e-01 9.678927e-01 -1.770255e-01 2.346214e-02 8.968587e-02
2.285000e+10 2.354440e-02 8.986467e-02 9.677989e-01 -1.773950e-01 9.677989e-01 -1.773951e-01 2.353968e-02 8.986625e-02
2.290000e+10 2.362211e-02 9.004497e-02 9.677049e-01 -1.777645e-01 9.677049e-01 -1.777646e-01 2.361737e-02 9.004657e-02
2.295000e+10 2.369996e-02 9.022522e-02 9.676108e-01 -1.781340e-01 9.676108e-01 -1.781341e-01 2.369520e-02 9.022682e-02
2.300000e+10 2.377795e-02 9.040540e-02 9.675166e-01 -1.785035e-01 9.675166e-01 -1.785036e-01 2.377317e-02 9.040702e-02
2.305000e+10 2.385609e-02 9.058552e-02 9.674223e-01 -1.788730e-01 9.674223e-01 -1.788730e-01 2.385129e-02 9.058714e-02
2.310000e+10 2.393437e-02 9.076558e-02 9.673279e-01 -1.792424e-01 9.673279e-01 -1.792425e-01 2.392955e-02 9.076721e-02
2.315000e+10 2.401279e-02 9.094556e-02 9.672334e-01 -1.796118e-01 9.672334e-01 -1.796119e-01 2.400795e-02 9.094720e-02
2.320000e+10 2.409135e-02 9.112548e-02 9.671387e-01 -1.799812e-01 9.671387e-01 -1.799813e-01 2.408649e-02 9.112713e-02
2.325000e+10 2.417005e-02 9.130533e-02 9.670439e-01 -1.803506e-01 9.670439e-01 -1.803507e-01 2.416517e-02 9.130699e-02
2.330000e+10 2.424890e-02 9.148511e-02 9.669490e-01 -1.807200e-01 9.669490e-01 -1.807201e-01 2.424399e-02 9.148678e-02
2.335000e+10 2.432788e-02 9.166481e-02 9.668540e-01 -1.810894e-01 9.668540e-01 -1.810895e-01 2.432295e-02 9.166649e-02
2.340000e+10 2.440700e-02 9.184445e-02 9.667589e-01 -1.814588e-01 9.667588e-01 -1.814589e-01 2.440205e-02 9.184613e-02
2.345000e+10 2.448625e-02 9.202400e-02 9.666636e-01 -1.818282e-01 9.666635e-01 -1.818282e-01 2.448129e-02 9.202570e-02
2.350000e+10 2.456564e-02 9.220348e-02 9.665682e-01 -1.821975e-01 9.665681e-01 -1.821976e-01 2.456066e-02 9.220519e-02
2.355000e+10 2.464517e-02 9.238289e-02 9.664726e-01 -1.825669e-01 9.664726e-01 -1.825670e-01 2.464016e-02 9.238460e-02
2.360000e+10 2.472483e-02 9.256221e-02 9.663769e-01 -1.829363e-01 9.663769e-01 -1.829363e-01 2.471980e-02 9.256393e-02
2.365000e+10 2.480462e-02 9.274146e-02 9.662811e-01 -1.833056e-01 9.662811e-01 -1.833057e-01 2.479957e-02 9.274319e-02
2.370000e+10 2.488454e-02 9.292063e-02 9.661852e-01 -1.836750e-01 9.661851e-01 -1.836750e-01 2.487947e-02 9.292236e-02
2.375000e+10 2.496459e-02 9.309971e-02 9.660891e-01 -1.840443e-01 9.660890e-01 -1.840444e-01 2.495950e-02 9.310146e-02
2.380000e+10 2.504477e-02 9.327872e-02 9.659928e-01 -1.844137e-01 9.659928e-01 -1.844137e-01 2.503966e-02 9.328047e-02
2.385000e+10 2.512508e-02 9.345764e-02 9.658965e-01 -1.847830e-01 9.658964e-01 -1.847831e-01 2.511995e-02 9.345940e-02
2.390000e+10 2.520551e-02 9.363648e-02 9.657999e-01 -1.851524e-01 9.657999e-01 -1.851525e-01 2.520036e-02 9.363825e-02
2.395000e+10 2.528607e-02 9.381523e-02 9.657033e-01 -1.855218e-01 9.657032e-01 -1.855218e-01 2.528089e-02 9.381701e-02
2.400000e+10 2.536674e-02 9.399390e-02 9.656064e-01 -1.858911e-01 9.656064e-01 -1.858912e-01 2.536155e-02 9.399568e-02
2.405000e+10 2.544754e-02 9.417248e-02 9.655095e-01 -1.862605e-01 9.655094e-01 -1.862605e-01 2.544233e-02 9.417428e-02
2.410000e+10 2.552846e-02 9.435098e-02 9.654123e-01 -1.866299e-01 9.654123e-01 -1.866299e-01 2.552323e-02 9.435278e-02
2.415000e+10 2.560950e-02 9.452940e-02 9.653150e-01 -1.869993e-01 9.653150e-01 -1.869993e-01 2.560425e-02 9.453121e-02
2.420000e+10 2.569066e-02 9.470772e-02 9.652176e-01 -1.873686e-01 9.652175e-01 -1.873687e-01 2.568538e-02 9.470954e-02
2.425000e+10 2.577193e-02 9.488596e-02 9.651199e-01 -1.877380e-01 9.651199e-01 -1.877380e-01 2.576663e-02 9.488779e-02
2.430000e+10 2.585331e-02 9.506412e-02 9.650221e-01 -1.881074e-01 9.650221e-01 -1.881074e-01 2.584800e-02 9.506595e-02
2.435000e+10 2.593481e-02 9.524219e-02 9.649242e-01 -1.884768e-01 9.649241e-01 -1.884768e-01 2.592947e-02 9.524403e-02
2.440000e+10 2.601641e-02 9.542017e-02 9.648260e-01 -1.888462e-01 9.648260e-01 -1.888462e-01 2.601106e-02 9.542202e-02
2.445000e+10 2.609813e-02 9.559807e-02 9.647277e-01 -1.892155e-01 9.647276e-01 -1.892156e-01 2.609276e-02 9.559992e-02
2.450000e+10 2.617995e-02 9.577588e-02 9.646292e-01 -1.895849e-01 9.646291e-01 -1.895850e-01 2.617456e-02 9.577774e-02
2.455000e+10 2.626188e-02 9.595361e-02 9.645305e-01 -1.899543e-01 9.645305e-01 -1.899543e-01 2.625647e-02 9.595548e-02
2.460000e+10 2.634392e-02 9.613125e-02 9.644317e-01 -1.903237e-01 9.644316e-01 -1.903237e-01 2.633849e-02 9.613312e-02
2.465000e+10 2.642606e-02 9.630881e-02 9.643326e-01 -1.906931e-01 9.643325e-01 -1.906931e-01 2.642061e-02 9.631069e-02
2.470000e+10 2.650830e-02 9.648628e-02 9.642334e-01 -1.910625e-01 9.642333e-01 -1.910625e-01 2.650283e-02 9.648817e-02
2.475000e+10 2.659064e-02 9.666367e-02 9.641339e-01 -1.914318e-01 9.641339e-01 -1.914318e-01 2.658515e-02 9.666556e-02
2.480000e+10 2.667309e-02 9.684098e-02 9.640343e-01 -1.918012e-01 9.640342e-01 -1.918012e-01 2.666758e-02 9.684288e-02
2.485000e+10 2.675563e-02 9.701820e-02 9.639345e-01 -1.921705e-01 9.639344e-01 -1.921706e-01 2.675010e-02 9.702011e-02
2.490000e+10 2.683826e-02 9.719535e-02 9.638345e-01 -1.925399e-01 9.638344e-01 -1.925399e-01 2.683272e-02 9.719726e-02
2.495000e+10 2.692100e-02 9.737242e-02 9.637342e-01 -1.929092e-01 9.637341e-01 -1.929092e-01 2.691543e-02 9.737433e-02
2.500000e+10 2.700383e-02 9.754940e-02 9.636338e-01 -1.932785e-01 9.636337e-01 -1.932785e-01 2.699824e-02 9.755133e-02
2.505000e+10 2.708675e-02 9.772631e-02 9.635331e-01 -1.936478e-01 9.635330e-01 -1.936478e-01 2.708115e-02 9.772824e-02
2.510000e+10 2.716977e-02 9.790315e-02 9.634323e-01 -1.940171e-01 9.634322e-01 -1.940171e-01 2.716415e-02 9.790508e-02
2.515000e+10 2.725288e-02 9.807991e-02 9.633312e-01 -1.943864e-01 9.633311e-01 -1.943864e-01 2.724724e-02 9.808184e-02
2.520000e+10 2.733608e-02 9.825659e-02 9.632299e-01 -1.947556e-01 9.632298e-01 -1.947556e-01 2.733042e-02 9.825854e-02
2.525000e+10 2.741937e-02 9.843321e-02 9.631284e-01 -1.951248e-01 9.631283e-01 -1.951248e-01 2.741369e-02 9.843515e-02
2.530000e+10 2.750276e-02 9.860975e-02 9.630267e-01 -1.954940e-01 9.630266e-01 -1.954940e-01 2.749706e-02 9.861170e-02
2.535000e+10 2.758623e-02 9.878622e-02 9.629247e-01 -1.958632e-01 9.629246e-01 -1.958632e-01 2.758051e-02 9.878818e-02
2.540000e+10 2.766979e-02 9.896263e-02 9.628225e-01 -1.962323e-01 9.628224e-01 -1.962323e-01 2.766406e-02 9.896459e-02
2.545000e+10 2.775344e-02 9.913897e-02 9.627201e-01 -1.966014e-01 9.627200e-01 -1.966014e-01 2.774769e-02 9.914093e-02
2.550000e+10 2.783719e-02 9.931524e-02 9.626175e-01 -1.969705e-01 9.626174e-01 -1.969705e-01 2.783141e-02 9.931721e-02
2.555000e+10 2.792102e-02 9.949146e-02 9.625146e-01 -1.973395e-01 9.625145e-01 -1.973395e-01 2.791522e-02 9.949343e-02
2.560000e+10 2.800493e-02 9.966761e-02 9.624115e-01 -1.977084e-01 9.624114e-01 -1.977084e-01 2.799912e-02 9.966958e-02
2.565000e+10 2.808894e-02 9.984370e-02 9.623082e-01 -1.980774e-01 9.623081e-01 -1.980773e-01 2.808311e-02 9.984568e-02
2.570000e+10 2.817304e-02 1.000197e-01 9.622046e-01 -1.984462e-01 9.622045e-01 -1.984462e-01 2.816719e-02 1.000217e-01
2.575000e+10 2.825723e-02 1.001957e-01 9.621008e-01 -1.988151e-01 9.621007e-01 -1.988150e-01 2.825136e-02 1.001977e-01
2.580000e+10 2.834150e-02 1.003717e-01 9.619968e-01 -1.991838e-01 9.619967e-01 -1.991838e-01 2.833562e-02 1.003736e-01
2.585000e+10 2.842587e-02 1.005475e-01 9.618925e-01 -1.995525e-01 9.618924e-01 -1.995525e-01 2.841997e-02 1.005495e-01
2.590000e+10 2.851033e-02 1.007234e-01 9.617880e-01 -1.999212e-01 9.617879e-01 -1.999211e-01 2.850441e-02 1.007253e-01
2.595000e+10 2.859488e-02 1.008991e-01 9.616832e-01 -2.002897e-01 9.616831e-01 -2.002897e-01 2.858894e-02 1.009011e-01
2.600000e+10 2.867952e-02 1.010749e-01 9.615782e-01 -2.006583e-01 9.615781e-01 -2.006582e-01 2.867356e-02 1.010769e-01
2.605000e+10 2.876426e-02 1.012506e-01 9.614730e-01 -2.010267e-01 9.614728e-01 -2.010266e-01 2.875828e-02 1.012525e-01
2.610000e+10 2.884909e-02 1.014262e-01 9.613675e-01 -2.013951e-01 9.613674e-01 -2.013950e-01 2.884309e-02 1.014282e-01
2.615000e+10 2.893402e-02 1.016018e-01 9.612618e-01 -2.017633e-01 9.612616e-01 -2.017633e-01 2.892800e-02 1.016038e-01
2.620000e+10 2.901904e-02 1.017774e-01 9.611558e-01 -2.021315e-01 9.611557e-01 -2.021315e-01 2.901301e-02 1.017794e-01
2.625000e+10 2.910417e-02 1.019529e-01 9.610496e-01 -2.024997e-01 9.610495e-01 -2.024996e-01 2.909812e-02 1.019549e-01
2.630000e+10 2.918939e-02 1.021284e-01 9.609431e-01 -2.028677e-01 9.609430e-01 -2.028676e-01 2.918332e-02 1.021304e-01
2.635000e+10 2.927472e-02 1.023039e-01 9.608365e-01 -2.032356e-01 9.608363e-01 -2.032356e-01 2.926863e-02 1.023059e-01
2.640000e+10 2.936015e-02 1.024793e-01 9.607295e-01 -2.036035e-01 9.607294e-01 -2.036034e-01 2.935404e-02 1.024813e-01
2.645000e+10 2.944569e-02 1.026547e-01 9.606223e-01 -2.039712e-01 9.606222e-01 -2.039712e-01 2.943956e-02 1.026567e-01
2.650000e+10 2.953134e-02 1.028301e-01 9.605149e-01 -2.043389e-01 9.605148e-01 -2.043388e-01 2.952519e-02 1.028321e-01
2.655000e+10 2.961710e-02 1.030054e-01 9.604073e-01 -2.047064e-01 9.604071e-01 -2.047064e-01 2.961093e-02 1.030074e-01
2.660000e+10 2.970297e-02 1.031808e-01 9.602994e-01 -2.050739e-01 9.602992e-01 -2.050738e-01 2.969678e-02 1.031827e-01
2.665000e+10 2.978895e-02 1.033561e-01 9.601913e-01 -2.054412e-01 9.601911e-01 -2.054411e-01 2.978274e-02 1.033580e-01
2.670000e+10 2.987505e-02 1.035314e-01 9.600829e-01 -2.058084e-01 9.600827e-01 -2.058083e-01 2.986883e-02 1.035333e-01
2.675000e+10 2.996128e-02 1.037066e-01 9.599743e-01 -2.061755e-01 9.599741e-01 -2.061755e-01 2.995503e-02 1.037086e-01
2.680000e+10 3.004762e-02 1.038818e-01 9.598655e-01 -2.065425e-01 9.598653e-01 -2.065425e-01 3.004135e-02 1.038838e-01
2.685000e+10 3.013409e-02 1.040571e-01 9.597564e-01 -2.069094e-01 9.597562e-01 -2.069093e-01 3.012781e-02 1.040590e-01
2.690000e+10 3.022070e-02 1.042323e-01 9.596471e-01 -2.072762e-01 9.596469e-01 -2.072761e-01 3.021438e-02 1.042342e-01
2.695000e+10 3.030743e-02 1.044075e-01 9.595376e-01 -2.076428e-01 9.595374e-01 -2.076427e-01 3.030109e-02 1.044094e-01
2.700000e+10 3.039429e-02 1.045826e-01 9.594278e-01 -2.080094e-01 9.594276e-01 -2.080092e-01 3.038794e-02 1.045845e-01
2.705000e+10 3.048130e-02 1.047578e-01 9.593179e-01 -2.083758e-01 9.593177e-01 -2.083756e-01 3.047492e-02 1.047597e-01
2.710000e+10 3.056844e-02 1.049329e-01 9.592077e-01 -2.087420e-01 9.592075e-01 -2.087419e-01 3.056204e-02 1.049348e-01
2.715000e+10 3.065573e-02 1.051080e-01 9.590972e-01 -2.091082e-01 9.590970e-01 -2.091080e-01 3.064931e-02 1.051099e-01
2.720000e+10 3.074317e-02 1.052831e-01 9.589866e-01 -2.094742e-01 9.589864e-01 -2.094740e-01 3.073672e-02 1.052850e-01
2.725000e+10 3.083075e-02 1.054582e-01 9.588758e-01 -2.098401e-01 9.588756e-01 -2.098399e-01 3.082429e-02 1.054601e-01
2.730000e+10 3.091850e-02 1.056333e-01 9.587647e-01 -2.102058e-01 9.587645e-01 -2.102057e-01 3.091200e-02 1.056352e-01
2.735000e+10 3.100639e-02 1.058084e-01 9.586534e-01 -2.105714e-01 9.586532e-01 -2.105713e-01 3.099988e-02 1.058103e-01
2.740000e+10 3.109445e-02 1.059834e-01 9.585420e-01 -2.109369e-01 9.585417e-01 -2.109368e-01 3.108791e-02 1.059853e-01
2.745000e+10 3.118267e-02 1.061585e-01 9.584303e-01 -2.113023e-01 9.584300e-01 -2.113021e-01 3.117611e-02 1.061603e-01
2.750000e+10 3.127107e-02 1.063335e-01 9.583184e-01 -2.116675e-01 9.583182e-01 -2.116673e-01 3.126447e-02 1.063353e-01
2.755000e+10 3.135963e-02 1.065085e-01 9.582063e-01 -2.120326e-01 9.582061e-01 -2.120324e-01 3.135301e-02 1.065103e-01
2.760000e+10 3.144836e-02 1.066835e-01 9.580940e-01 -2.123975e-01 9.580938e-01 -2.123974e-01 3.144172e-02 1.066853e-01
2.765000e+10 3.153728e-02 1.068584e-01 9.579815e-01 -2.127624e-01 9.579813e-01 -2.127622e-01 3.153060e-02 1.068603e-01
2.770000e+10 3.162637e-02 1.070334e-01 9.578689e-01 -2.131271e-01 9.578686e-01 -2.131269e-01 3.161967e-02 1.070352e-01
2.775000e+10 3.171565e-02 1.072083e-01 9.577560e-01 -2.134916e-01 9.577557e-01 -2.134914e-01 3.170892e-02 1.072101e-01
2.780000e+10 3.180512e-02 1.073832e-01 9.576429e-01 -2.138561e-01 9.576427e-01 -2.138559e-01 3.179836e-02 1.073850e-01
2.785000e+10 3.189477e-02 1.075581e-01 9.575297e-01 -2.142204e-01 9.575295e-01 -2.142202e-01 3.188798e-02 1.075599e-01
2.790000e+10 3.198463e-02 1.077330e-01 9.574163e-01 -2.145845e-01 9.574160e-01 -2.145843e-01 3.197781e-02 1.077347e-01
2.795000e+10 3.207468e-02 1.079078e-01 9.573027e-01 -2.149486e-01 9.573024e-01 -2.149484e-01 3.206782e-02 1.079096e-01
2.800000e+10 3.216493e-02 1.080826e-01 9.571889e-01 -2.153125e-01 9.571887e-01 -2.153123e-01 3.215804e-02 1.080843e-01
2.805000e+10 3.225538e-02 1.082573e-01 9.570750e-01 -2.156763e-01 9.570747e-01 -2.156761e-01 3.224846e-02 1.082591e-01
2.810000e+10 3.234604e-02 1.084321e-01 9.569609e-01 -2.160400e-01 9.569606e-01 -2.160398e-01 3.233909e-02 1.084338e-01
2.815000e+10 3.243691e-02 1.086068e-01 9.568466e-01 -2.164036e-01 9.568463e-01 -2.164033e-01 3.242993e-02 1.086085e-01
2.820000e+10 3.252799e-02 1.087814e-01 9.567321e-01 -2.167670e-01 9.567319e-01 -2.167668e-01 3.252097e-02 1.087832e-01
2.825000e+10 3.261928e-02 1.089560e-01 9.566175e-01 -2.171303e-01 9.566173e-01 -2.171301e-01 3.261223e-02 1.089578e-01
2.830000e+10 3.271079e-02 1.091306e-01 9.565027e-01 -2.174936e-01 9.565025e-01 -2.174933e-01 3.270371e-02 1.091323e-01
2.835000e+10 3.280252e-02 1.093051e-01 9.563878e-01 -2.178567e-01 9.563875e-01 -2.178564e-01 3.279540e-02 1.093069e-01
2.840000e+10 3.289448e-02 1.094796e-01 9.562727e-01 -2.182197e-01 9.562724e-01 -2.182195e-01 3.288731e-02 1.094813e-01
2.845000e+10 3.298665e-02 1.096540e-01 9.561575e-01 -2.185826e-01 9.561572e-01 -2.185824e-01 3.297945e-02 1.096557e-01
2.850000e+10 3.307905e-02 1.098284e-01 9.560421e-01 -2.189455e-01 9.560418e-01 -2.189452e-01 3.307181e-02 1.098301e-01
2.855000e+10 3.317167e-02 1.100027e-01 9.559265e-01 -2.193082e-01 9.559262e-01 -2.193079e-01 3.316439e-02 1.100044e-01
2.860000e+10 3.326453e-02 1.101769e-01 9.558108e-01 -2.196708e-01 9.558105e-01 -2.196705e-01 3.325720e-02 1.101786e-01
2.865000e+10 3.335761e-02 1.103511e-01 9.556949e-01 -2.200334e-01 9.556946e-01 -2.200331e-01 3.335024e-02 1.103528e-01
2.870000e+10 3.345092e-02 1.105252e-01 9.555789e-01 -2.203959e-01 9.555786e-01 -2.203956e-01 3.344351e-02 1.105269e-01
2.875000e+10 3.354446e-02 1.106993e-01 9.554627e-01 -2.207583e-01 9.554625e-01 -2.207580e-01 3.353701e-02 1.107009e-01
2.880000e+10 3.363824e-02 1.108732e-01 9.553464e-01 -2.211206e-01 9.553462e-01 -2.211203e-01 3.363074e-02 1.108749e-01
2.885000e+10 3.373224e-02 1.110471e-01 9.552300e-01 -2.214829e-01 9.552297e-01 -2.214825e-01 3.372470e-02 1.110488e-01
2.890000e+10 3.382648e-02 1.112209e-01 9.551134e-01 -2.218451e-01 9.551131e-01 -2.218447e-01 3.381890e-02 1.112226e-01
2.895000e+10 3.392095e-02 1.113946e-01 9.549966e-01 -2.222072e-01 9.549964e-01 -2.222069e-01 3.391332e-02 1.113963e-01
2.900000e+10 3.401565e-02 1.115682e-01 9.548797e-01 -2.225693e-01 9.548795e-01 -2.225690e-01 3.400798e-02 1.115699e-01
2.905000e+10 3.411058e-02 1.117417e-01 9.547627e-01 -2.229313e-01 9.547624e-01 -2.229310e-01 3.410286e-02 1.117434e-01
2.910000e+10 3.420575e-02 1.119151e-01 9.546455e-01 -2.232933e-01 9.546452e-01 -2.232930e-01 3.419797e-02 1.119168e-01
2.915000e+10 3.430114e-02 1.120884e-01 9.545282e-01 -2.236553e-01 9.545279e-01 -2.236550e-01 3.429332e-02 1.120901e-01
2.920000e+10 3.439676e-02 1.122616e-01 9.544107e-01 -2.240172e-01 9.544104e-01 -2.240169e-01 3.438889e-02 1.122633e-01
2.925000e+10 3.449261e-02 1.124347e-01 9.542931e-01 -2.243791e-01 9.542928e-01 -2.243788e-01 3.448468e-02 1.124364e-01
2.930000e+10 3.458868e-02 1.126077e-01 9.541753e-01 -2.247410e-01 9.541750e-01 -2.247407e-01 3.458070e-02 1.126094e-01
2.935000e+10 3.468497e-02 1.127805e-01 9.540574e-01 -2.251029e-01 9.540571e-01 -2.251025e-01 3.467695e-02 1.127823e-01
2.940000e+10 3.478148e-02 1.129533e-01 9.539393e-01 -2.254647e-01 9.539390e-01 -2.254644e-01 3.477341e-02 1.129551e-01
2.945000e+10 3.487822e-02 1.131259e-01 9.538211e-01 -2.258266e-01 9.538208e-01 -2.258262e-01 3.487009e-02 1.131277e-01
2.950000e+10 3.497516e-02 1.132984e-01 9.537027e-01 -2.261884e-01 9.537024e-01 -2.261880e-01 3.496698e-02 1.133002e-01
2.955000e+10 3.507232e-02 1.134707e-01 9.535841e-01 -2.265502e-01 9.535838e-01 -2.265499e-01 3.506409e-02 1.134726e-01
2.960000e+10 3.516969e-02 1.136430e-01 9.534654e-01 -2.269121e-01 9.534651e-01 -2.269117e-01 3.516140e-02 1.136448e-01
2.965000e+10 3.526726e-02 1.138151e-01 9.533465e-01 -2.272739e-01 9.533463e-01 -2.272736e-01 3.525892e-02 1.138169e-01
2.970000e+10 3.536504e-02 1.139870e-01 9.532275e-01 -2.276358e-01 9.532272e-01 -2.276354e-01 3.535663e-02 1.139889e-01
2.975000e+10 3.546300e-02 1.141588e-01 9.531083e-01 -2.279977e-01 9.531080e-01 -2.279973e-01 3.545455e-02 1.141607e-01
2.980000e+10 3.556117e-02 1.143305e-01 9.529889e-01 -2.283596e-01 9.529886e-01 -2.283592e-01 3.555265e-02 1.143324e-01
2.985000e+10 3.565952e-02 1.145020e-01 9.528693e-01 -2.287216e-01 9.528691e-01 -2.287212e-01 3.565095e-02 1.145040e-01
2.990000e+10 3.575805e-02 1.146734e-01 9.527496e-01 -2.290835e-01 9.527494e-01 -2.290832e-01 3.574942e-02 1.146754e-01
2.995000e+10 3.585676e-02 1.148446e-01 9.526297e-01 -2.294456e-01 9.526295e-01 -2.294452e-01 3.584808e-02 1.148466e-01
3.000000e+10 3.595564e-02 1.150157e-01 9.525096e-01 -2.298076e-01 9.525094e-01 -2.298072e-01 3.594691e-02 1.150177e-01
