#   Hz   S  RI   R   50
!
0.000000e+00 2.688553e-03 0.000000e+00 9.964137e-01 0.000000e+00 9.964136e-01 0.000000e+00 2.688503e-03 0.000000e+00
5.000000e+07 2.688330e-03 2.033327e-04 9.964128e-01 -4.657444e-04 9.964126e-01 -4.657475e-04 2.688280e-03 2.033324e-04
1.000000e+08 2.687663e-03 4.066962e-04 9.964100e-01 -9.314265e-04 9.964099e-01 -9.314328e-04 2.687613e-03 4.066955e-04
1.500000e+08 2.686554e-03 6.101210e-04 9.964054e-01 -1.396984e-03 9.964052e-01 -1.396994e-03 2.686504e-03 6.101200e-04
2.000000e+08 2.685007e-03 8.136376e-04 9.963989e-01 -1.862356e-03 9.963988e-01 -1.862369e-03 2.684957e-03 8.136363e-04
2.500000e+08 2.683028e-03 1.017276e-03 9.963906e-01 -2.327481e-03 9.963905e-01 -2.327496e-03 2.682978e-03 1.017275e-03
3.000000e+08 2.680624e-03 1.221067e-03 9.963805e-01 -2.792297e-03 9.963804e-01 -2.792316e-03 2.680574e-03 1.221065e-03
3.500000e+08 2.677804e-03 1.425038e-03 9.963686e-01 -3.256746e-03 9.963684e-01 -3.256768e-03 2.677755e-03 1.425036e-03
4.000000e+08 2.674578e-03 1.629220e-03 9.963549e-01 -3.720768e-03 9.963547e-01 -3.720792e-03 2.674530e-03 1.629217e-03
4.500000e+08 2.670960e-03 1.833639e-03 9.963394e-01 -4.184304e-03 9.963393e-01 -4.184332e-03 2.670912e-03 1.833636e-03
5.000000e+08 2.666961e-03 2.038325e-03 9.963222e-01 -4.647299e-03 9.963220e-01 -4.647329e-03 2.666914e-03 2.038322e-03
5.500000e+08 2.662597e-03 2.243303e-03 9.963032e-01 -5.109697e-03 9.963031e-01 -5.109730e-03 2.662551e-03 2.243299e-03
6.000000e+08 2.657885e-03 2.448599e-03 9.962826e-01 -5.571443e-03 9.962825e-01 -5.571479e-03 2.657839e-03 2.448595e-03
6.500000e+08 2.652841e-03 2.654239e-03 9.962603e-01 -6.032486e-03 9.962602e-01 -6.032524e-03 2.652796e-03 2.654235e-03
7.000000e+08 2.647485e-03 2.860246e-03 9.962364e-01 -6.492774e-03 9.962362e-01 -6.492814e-03 2.647441e-03 2.860241e-03
7.500000e+08 2.641837e-03 3.066644e-03 9.962109e-01 -6.952258e-03 9.962107e-01 -6.952301e-03 2.641793e-03 3.066639e-03
8.000000e+08 2.635918e-03 3.273454e-03 9.961838e-01 -7.410890e-03 9.961836e-01 -7.410936e-03 2.635874e-03 3.273448e-03
8.500000e+08 2.629749e-03 3.480696e-03 9.961552e-01 -7.868627e-03 9.961550e-01 -7.868675e-03 2.629707e-03 3.480690e-03
9.000000e+08 2.623355e-03 3.688392e-03 9.961251e-01 -8.325424e-03 9.961249e-01 -8.325474e-03 2.623313e-03 3.688385e-03
9.500000e+08 2.616758e-03 3.896557e-03 9.960936e-01 -8.781241e-03 9.960934e-01 -8.781293e-03 2.616718e-03 3.896550e-03
1.000000e+09 2.609985e-03 4.105211e-03 9.960606e-01 -9.236039e-03 9.960605e-01 -9.236092e-03 2.609946e-03 4.105203e-03
1.050000e+09 2.603061e-03 4.314368e-03 9.960263e-01 -9.689780e-03 9.960262e-01 -9.689836e-03 2.603023e-03 4.314360e-03
1.100000e+09 2.596012e-03 4.524042e-03 9.959907e-01 -1.014243e-02 9.959905e-01 -1.014249e-02 2.595975e-03 4.524034e-03
1.150000e+09 2.588865e-03 4.734247e-03 9.959538e-01 -1.059396e-02 9.959537e-01 -1.059402e-02 2.588829e-03 4.734238e-03
1.200000e+09 2.581647e-03 4.944994e-03 9.959157e-01 -1.104434e-02 9.959155e-01 -1.104440e-02 2.581612e-03 4.944984e-03
1.250000e+09 2.574387e-03 5.156293e-03 9.958764e-01 -1.149353e-02 9.958763e-01 -1.149360e-02 2.574353e-03 5.156283e-03
1.300000e+09 2.567112e-03 5.368153e-03 9.958360e-01 -1.194153e-02 9.958359e-01 -1.194159e-02 2.567079e-03 5.368142e-03
1.350000e+09 2.559851e-03 5.580581e-03 9.957945e-01 -1.238830e-02 9.957944e-01 -1.238836e-02 2.559819e-03 5.580570e-03
1.400000e+09 2.552632e-03 5.793583e-03 9.957520e-01 -1.283382e-02 9.957518e-01 -1.283388e-02 2.552601e-03 5.793572e-03
1.450000e+09 2.545484e-03 6.007164e-03 9.957085e-01 -1.327808e-02 9.957083e-01 -1.327814e-02 2.545455e-03 6.007152e-03
1.500000e+09 2.538436e-03 6.221326e-03 9.956641e-01 -1.372106e-02 9.956639e-01 -1.372113e-02 2.538408e-03 6.221313e-03
1.550000e+09 2.531516e-03 6.436072e-03 9.956188e-01 -1.416275e-02 9.956186e-01 -1.416282e-02 2.531490e-03 6.436058e-03
1.600000e+09 2.524754e-03 6.651401e-03 9.955726e-01 -1.460314e-02 9.955725e-01 -1.460321e-02 2.524728e-03 6.651386e-03
1.650000e+09 2.518176e-03 6.867312e-03 9.955257e-01 -1.504222e-02 9.955256e-01 -1.504229e-02 2.518152e-03 6.867297e-03
1.700000e+09 2.511812e-03 7.083804e-03 9.954781e-01 -1.547999e-02 9.954779e-01 -1.548006e-02 2.511789e-03 7.083788e-03
1.750000e+09 2.505688e-03 7.300872e-03 9.954298e-01 -1.591644e-02 9.954296e-01 -1.591651e-02 2.505667e-03 7.300856e-03
1.800000e+09 2.499833e-03 7.518512e-03 9.953808e-01 -1.635157e-02 9.953806e-01 -1.635164e-02 2.499813e-03 7.518495e-03
1.850000e+09 2.494272e-03 7.736717e-03 9.953312e-01 -1.678539e-02 9.953311e-01 -1.678545e-02 2.494253e-03 7.736699e-03
1.900000e+09 2.489032e-03 7.955480e-03 9.952812e-01 -1.721789e-02 9.952810e-01 -1.721795e-02 2.489015e-03 7.955462e-03
1.950000e+09 2.484139e-03 8.174794e-03 9.952306e-01 -1.764908e-02 9.952304e-01 -1.764914e-02 2.484123e-03 8.174775e-03
2.000000e+09 2.479618e-03 8.394647e-03 9.951796e-01 -1.807897e-02 9.951794e-01 -1.807904e-02 2.479603e-03 8.394628e-03
2.050000e+09 2.475492e-03 8.615031e-03 9.951281e-01 -1.850757e-02 9.951279e-01 -1.850764e-02 2.475479e-03 8.615010e-03
2.100000e+09 2.471786e-03 8.835932e-03 9.950763e-01 -1.893489e-02 9.950762e-01 -1.893495e-02 2.471775e-03 8.835911e-03
2.150000e+09 2.468522e-03 9.057339e-03 9.950242e-01 -1.936094e-02 9.950241e-01 -1.936100e-02 2.468512e-03 9.057317e-03
2.200000e+09 2.465723e-03 9.279238e-03 9.949719e-01 -1.978574e-02 9.949717e-01 -1.978580e-02 2.465714e-03 9.279215e-03
2.250000e+09 2.463409e-03 9.501616e-03 9.949193e-01 -2.020930e-02 9.949191e-01 -2.020936e-02 2.463401e-03 9.501592e-03
2.300000e+09 2.461600e-03 9.724456e-03 9.948665e-01 -2.063164e-02 9.948663e-01 -2.063170e-02 2.461594e-03 9.724431e-03
2.350000e+09 2.460316e-03 9.947743e-03 9.948135e-01 -2.105278e-02 9.948133e-01 -2.105284e-02 2.460311e-03 9.947718e-03
2.400000e+09 2.459574e-03 1.017146e-02 9.947604e-01 -2.147274e-02 9.947602e-01 -2.147280e-02 2.459571e-03 1.017144e-02
2.450000e+09 2.459394e-03 1.039559e-02 9.947072e-01 -2.189154e-02 9.947070e-01 -2.189160e-02 2.459392e-03 1.039557e-02
2.500000e+09 2.459790e-03 1.062012e-02 9.946540e-01 -2.230921e-02 9.946538e-01 -2.230926e-02 2.459790e-03 1.062009e-02
2.550000e+09 2.460779e-03 1.084503e-02 9.946008e-01 -2.272576e-02 9.946006e-01 -2.272581e-02 2.460779e-03 1.084500e-02
2.600000e+09 2.462374e-03 1.107029e-02 9.945475e-01 -2.314123e-02 9.945474e-01 -2.314127e-02 2.462376e-03 1.107026e-02
2.650000e+09 2.464590e-03 1.129590e-02 9.944944e-01 -2.355563e-02 9.944942e-01 -2.355567e-02 2.464593e-03 1.129587e-02
2.700000e+09 2.467437e-03 1.152183e-02 9.944412e-01 -2.396900e-02 9.944410e-01 -2.396904e-02 2.467442e-03 1.152180e-02
2.750000e+09 2.470929e-03 1.174805e-02 9.943882e-01 -2.438135e-02 9.943880e-01 -2.438140e-02 2.470935e-03 1.174802e-02
2.800000e+09 2.475075e-03 1.197456e-02 9.943353e-01 -2.479273e-02 9.943351e-01 -2.479277e-02 2.475082e-03 1.197453e-02
2.850000e+09 2.479884e-03 1.220134e-02 9.942825e-01 -2.520316e-02 9.942823e-01 -2.520319e-02 2.479893e-03 1.220130e-02
2.900000e+09 2.485365e-03 1.242835e-02 9.942299e-01 -2.561266e-02 9.942297e-01 -2.561269e-02 2.485375e-03 1.242831e-02
2.950000e+09 2.491526e-03 1.265558e-02 9.941775e-01 -2.602127e-02 9.941773e-01 -2.602130e-02 2.491536e-03 1.265555e-02
3.000000e+09 2.498371e-03 1.288302e-02 9.941253e-01 -2.642901e-02 9.941251e-01 -2.642904e-02 2.498383e-03 1.288298e-02
3.050000e+09 2.505908e-03 1.311063e-02 9.940733e-01 -2.683592e-02 9.940731e-01 -2.683595e-02 2.505921e-03 1.311059e-02
3.100000e+09 2.514140e-03 1.333840e-02 9.940215e-01 -2.724203e-02 9.940213e-01 -2.724205e-02 2.514154e-03 1.333837e-02
3.150000e+09 2.523070e-03 1.356632e-02 9.939700e-01 -2.764736e-02 9.939698e-01 -2.764738e-02 2.523085e-03 1.356628e-02
3.200000e+09 2.532702e-03 1.379435e-02 9.939187e-01 -2.805194e-02 9.939185e-01 -2.805196e-02 2.532718e-03 1.379431e-02
3.250000e+09 2.543036e-03 1.402249e-02 9.938677e-01 -2.845581e-02 9.938675e-01 -2.845582e-02 2.543053e-03 1.402245e-02
3.300000e+09 2.554074e-03 1.425070e-02 9.938170e-01 -2.885900e-02 9.938168e-01 -2.885901e-02 2.554093e-03 1.425066e-02
3.350000e+09 2.565815e-03 1.447897e-02 9.937666e-01 -2.926153e-02 9.937664e-01 -2.926153e-02 2.565835e-03 1.447893e-02
3.400000e+09 2.578259e-03 1.470729e-02 9.937165e-01 -2.966343e-02 9.937163e-01 -2.966344e-02 2.578280e-03 1.470724e-02
3.450000e+09 2.591404e-03 1.493562e-02 9.936667e-01 -3.006474e-02 9.936665e-01 -3.006474e-02 2.591426e-03 1.493558e-02
3.500000e+09 2.605247e-03 1.516396e-02 9.936172e-01 -3.046548e-02 9.936170e-01 -3.046548e-02 2.605270e-03 1.516392e-02
3.550000e+09 2.619785e-03 1.539229e-02 9.935680e-01 -3.086568e-02 9.935678e-01 -3.086568e-02 2.619808e-03 1.539224e-02
3.600000e+09 2.635014e-03 1.562058e-02 9.935191e-01 -3.126538e-02 9.935189e-01 -3.126537e-02 2.635038e-03 1.562054e-02
3.650000e+09 2.650929e-03 1.584882e-02 9.934706e-01 -3.166459e-02 9.934704e-01 -3.166458e-02 2.650954e-03 1.584878e-02
3.700000e+09 2.667525e-03 1.607700e-02 9.934224e-01 -3.206335e-02 9.934222e-01 -3.206333e-02 2.667551e-03 1.607695e-02
3.750000e+09 2.684796e-03 1.630509e-02 9.933745e-01 -3.246167e-02 9.933743e-01 -3.246166e-02 2.684823e-03 1.630504e-02
3.800000e+09 2.702736e-03 1.653309e-02 9.933269e-01 -3.285960e-02 9.933267e-01 -3.285958e-02 2.702764e-03 1.653304e-02
3.850000e+09 2.721336e-03 1.676096e-02 9.932796e-01 -3.325715e-02 9.932794e-01 -3.325713e-02 2.721365e-03 1.676091e-02
3.900000e+09 2.740590e-03 1.698871e-02 9.932327e-01 -3.365435e-02 9.932325e-01 -3.365433e-02 2.740620e-03 1.698866e-02
3.950000e+09 2.760490e-03 1.721631e-02 9.931860e-01 -3.405123e-02 9.931859e-01 -3.405120e-02 2.760520e-03 1.721626e-02
4.000000e+09 2.781026e-03 1.744376e-02 9.931397e-01 -3.444780e-02 9.931395e-01 -3.444777e-02 2.781057e-03 1.744371e-02
4.050000e+09 2.802189e-03 1.767103e-02 9.930937e-01 -3.484409e-02 9.930935e-01 -3.484406e-02 2.802221e-03 1.767098e-02
4.100000e+09 2.823970e-03 1.789811e-02 9.930479e-01 -3.524012e-02 9.930477e-01 -3.524009e-02 2.824003e-03 1.789806e-02
4.150000e+09 2.846360e-03 1.812500e-02 9.930025e-01 -3.563592e-02 9.930023e-01 -3.563588e-02 2.846393e-03 1.812495e-02
4.200000e+09 2.869347e-03 1.835168e-02 9.929573e-01 -3.603150e-02 9.929571e-01 -3.603146e-02 2.869381e-03 1.835163e-02
4.250000e+09 2.892921e-03 1.857814e-02 9.929124e-01 -3.642689e-02 9.929122e-01 -3.642685e-02 2.892955e-03 1.857809e-02
4.300000e+09 2.917071e-03 1.880437e-02 9.928677e-01 -3.682210e-02 9.928675e-01 -3.682206e-02 2.917107e-03 1.880431e-02
4.350000e+09 2.941787e-03 1.903035e-02 9.928233e-01 -3.721716e-02 9.928231e-01 -3.721712e-02 2.941823e-03 1.903030e-02
4.400000e+09 2.967056e-03 1.925609e-02 9.927792e-01 -3.761208e-02 9.927790e-01 -3.761203e-02 2.967092e-03 1.925603e-02
4.450000e+09 2.992867e-03 1.948156e-02 9.927352e-01 -3.800688e-02 9.927351e-01 -3.800683e-02 2.992904e-03 1.948150e-02
4.500000e+09 3.019208e-03 1.970676e-02 9.926915e-01 -3.840157e-02 9.926914e-01 -3.840151e-02 3.019246e-03 1.970671e-02
4.550000e+09 3.046068e-03 1.993169e-02 9.926480e-01 -3.879617e-02 9.926479e-01 -3.879611e-02 3.046106e-03 1.993164e-02
4.600000e+09 3.073434e-03 2.015634e-02 9.926047e-01 -3.919070e-02 9.926046e-01 -3.919064e-02 3.073472e-03 2.015628e-02
4.650000e+09 3.101294e-03 2.038069e-02 9.925616e-01 -3.958516e-02 9.925615e-01 -3.958510e-02 3.101333e-03 2.038063e-02
4.700000e+09 3.129635e-03 2.060475e-02 9.925187e-01 -3.997958e-02 9.925186e-01 -3.997952e-02 3.129675e-03 2.060469e-02
4.750000e+09 3.158446e-03 2.082851e-02 9.924760e-01 -4.037397e-02 9.924758e-01 -4.037390e-02 3.158486e-03 2.082845e-02
4.800000e+09 3.187715e-03 2.105196e-02 9.924334e-01 -4.076833e-02 9.924332e-01 -4.076826e-02 3.187755e-03 2.105190e-02
4.850000e+09 3.217428e-03 2.127509e-02 9.923909e-01 -4.116268e-02 9.923907e-01 -4.116261e-02 3.217469e-03 2.127503e-02
4.900000e+09 3.247573e-03 2.149791e-02 9.923485e-01 -4.155702e-02 9.923484e-01 -4.155695e-02 3.247615e-03 2.149785e-02
4.950000e+09 3.278139e-03 2.172041e-02 9.923063e-01 -4.195138e-02 9.923062e-01 -4.195131e-02 3.278181e-03 2.172035e-02
5.000000e+09 3.309113e-03 2.194259e-02 9.922642e-01 -4.234575e-02 9.922641e-01 -4.234568e-02 3.309155e-03 2.194253e-02
5.050000e+09 3.340482e-03 2.216445e-02 9.922222e-01 -4.274015e-02 9.922221e-01 -4.274007e-02 3.340525e-03 2.216438e-02
5.100000e+09 3.372235e-03 2.238597e-02 9.921802e-01 -4.313458e-02 9.921801e-01 -4.313450e-02 3.372279e-03 2.238591e-02
5.150000e+09 3.404360e-03 2.260717e-02 9.921384e-01 -4.352905e-02 9.921382e-01 -4.352897e-02 3.404404e-03 2.260711e-02
5.200000e+09 3.436845e-03 2.282804e-02 9.920966e-01 -4.392356e-02 9.920964e-01 -4.392348e-02 3.436889e-03 2.282797e-02
5.250000e+09 3.469678e-03 2.304857e-02 9.920548e-01 -4.431812e-02 9.920546e-01 -4.431804e-02 3.469723e-03 2.304851e-02
5.300000e+09 3.502848e-03 2.326878e-02 9.920130e-01 -4.471275e-02 9.920129e-01 -4.471266e-02 3.502893e-03 2.326872e-02
5.350000e+09 3.536343e-03 2.348866e-02 9.919713e-01 -4.510743e-02 9.919712e-01 -4.510734e-02 3.536388e-03 2.348859e-02
5.400000e+09 3.570153e-03 2.370820e-02 9.919296e-01 -4.550217e-02 9.919295e-01 -4.550209e-02 3.570198e-03 2.370814e-02
5.450000e+09 3.604265e-03 2.392742e-02 9.918879e-01 -4.589699e-02 9.918877e-01 -4.589690e-02 3.604311e-03 2.392735e-02
5.500000e+09 3.638670e-03 2.414630e-02 9.918461e-01 -4.629187e-02 9.918460e-01 -4.629178e-02 3.638716e-03 2.414624e-02
5.550000e+09 3.673357e-03 2.436486e-02 9.918044e-01 -4.668682e-02 9.918042e-01 -4.668674e-02 3.673403e-03 2.436480e-02
5.600000e+09 3.708315e-03 2.458310e-02 9.917626e-01 -4.708185e-02 9.917624e-01 -4.708177e-02 3.708362e-03 2.458303e-02
5.650000e+09 3.743535e-03 2.480101e-02 9.917207e-01 -4.747696e-02 9.917206e-01 -4.747687e-02 3.743582e-03 2.480095e-02
5.700000e+09 3.779006e-03 2.501861e-02 9.916788e-01 -4.787214e-02 9.916787e-01 -4.787205e-02 3.779053e-03 2.501854e-02
5.750000e+09 3.814719e-03 2.523588e-02 9.916368e-01 -4.826739e-02 9.916367e-01 -4.826730e-02 3.814767e-03 2.523581e-02
5.800000e+09 3.850666e-03 2.545284e-02 9.915948e-01 -4.866272e-02 9.915947e-01 -4.866263e-02 3.850714e-03 2.545278e-02
5.850000e+09 3.886835e-03 2.566950e-02 9.915526e-01 -4.905813e-02 9.915525e-01 -4.905804e-02 3.886884e-03 2.566943e-02
5.900000e+09 3.923220e-03 2.588584e-02 9.915104e-01 -4.945361e-02 9.915103e-01 -4.945352e-02 3.923269e-03 2.588577e-02
5.950000e+09 3.959811e-03 2.610188e-02 9.914680e-01 -4.984916e-02 9.914679e-01 -4.984907e-02 3.959860e-03 2.610181e-02
6.000000e+09 3.996601e-03 2.631762e-02 9.914256e-01 -5.024479e-02 9.914255e-01 -5.024470e-02 3.996650e-03 2.631756e-02
6.050000e+09 4.033581e-03 2.653307e-02 9.913830e-01 -5.064048e-02 9.913829e-01 -5.064039e-02 4.033630e-03 2.653300e-02
6.100000e+09 4.070743e-03 2.674823e-02 9.913403e-01 -5.103624e-02 9.913402e-01 -5.103615e-02 4.070793e-03 2.674816e-02
6.150000e+09 4.108081e-03 2.696310e-02 9.912974e-01 -5.143206e-02 9.912973e-01 -5.143197e-02 4.108131e-03 2.696303e-02
6.200000e+09 4.145587e-03 2.717769e-02 9.912544e-01 -5.182795e-02 9.912543e-01 -5.182785e-02 4.145637e-03 2.717762e-02
6.250000e+09 4.183255e-03 2.739201e-02 9.912112e-01 -5.222389e-02 9.912111e-01 -5.222380e-02 4.183305e-03 2.739194e-02
6.300000e+09 4.221078e-03 2.760605e-02 9.911679e-01 -5.261989e-02 9.911678e-01 -5.261979e-02 4.221128e-03 2.760598e-02
6.350000e+09 4.259050e-03 2.781983e-02 9.911244e-01 -5.301593e-02 9.911243e-01 -5.301584e-02 4.259101e-03 2.781976e-02
6.400000e+09 4.297165e-03 2.803335e-02 9.910807e-01 -5.341203e-02 9.910807e-01 -5.341194e-02 4.297216e-03 2.803328e-02
6.450000e+09 4.335418e-03 2.824662e-02 9.910369e-01 -5.380816e-02 9.910368e-01 -5.380807e-02 4.335469e-03 2.824654e-02
6.500000e+09 4.373803e-03 2.845963e-02 9.909929e-01 -5.420434e-02 9.909928e-01 -5.420425e-02 4.373854e-03 2.845956e-02
6.550000e+09 4.412315e-03 2.867240e-02 9.909486e-01 -5.460055e-02 9.909486e-01 -5.460046e-02 4.412367e-03 2.867233e-02
6.600000e+09 4.450950e-03 2.888493e-02 9.909042e-01 -5.499679e-02 9.909042e-01 -5.499670e-02 4.451002e-03 2.888486e-02
6.650000e+09 4.489704e-03 2.909724e-02 9.908596e-01 -5.539305e-02 9.908595e-01 -5.539297e-02 4.489756e-03 2.909716e-02
6.700000e+09 4.528572e-03 2.930931e-02 9.908148e-01 -5.578934e-02 9.908147e-01 -5.578925e-02 4.528624e-03 2.930924e-02
6.750000e+09 4.567550e-03 2.952116e-02 9.907698e-01 -5.618564e-02 9.907697e-01 -5.618555e-02 4.567603e-03 2.952109e-02
6.800000e+09 4.606635e-03 2.973280e-02 9.907245e-01 -5.658196e-02 9.907244e-01 -5.658187e-02 4.606688e-03 2.973273e-02
6.850000e+09 4.645823e-03 2.994423e-02 9.906791e-01 -5.697827e-02 9.906790e-01 -5.697819e-02 4.645877e-03 2.994415e-02
6.900000e+09 4.685112e-03 3.015545e-02 9.906334e-01 -5.737460e-02 9.906333e-01 -5.737451e-02 4.685166e-03 3.015538e-02
6.950000e+09 4.724499e-03 3.036648e-02 9.905875e-01 -5.777091e-02 9.905874e-01 -5.777083e-02 4.724553e-03 3.036640e-02
7.000000e+09 4.763982e-03 3.057731e-02 9.905414e-01 -5.816722e-02 9.905413e-01 -5.816714e-02 4.764036e-03 3.057724e-02
7.050000e+09 4.803557e-03 3.078796e-02 9.904950e-01 -5.856351e-02 9.904950e-01 -5.856343e-02 4.803612e-03 3.078788e-02
7.100000e+09 4.843224e-03 3.099842e-02 9.904485e-01 -5.895979e-02 9.904484e-01 -5.895971e-02 4.843278e-03 3.099835e-02
7.150000e+09 4.882980e-03 3.120871e-02 9.904017e-01 -5.935604e-02 9.904016e-01 -5.935596e-02 4.883035e-03 3.120863e-02
7.200000e+09 4.922824e-03 3.141883e-02 9.903546e-01 -5.975227e-02 9.903546e-01 -5.975219e-02 4.922879e-03 3.141875e-02
7.250000e+09 4.962754e-03 3.162878e-02 9.903074e-01 -6.014846e-02 9.903073e-01 -6.014838e-02 4.962810e-03 3.162870e-02
7.300000e+09 5.002771e-03 3.183857e-02 9.902599e-01 -6.054461e-02 9.902598e-01 -6.054453e-02 5.002826e-03 3.183850e-02
7.350000e+09 5.042871e-03 3.204821e-02 9.902122e-01 -6.094072e-02 9.902121e-01 -6.094064e-02 5.042927e-03 3.204814e-02
7.400000e+09 5.083056e-03 3.225770e-02 9.901642e-01 -6.133678e-02 9.901642e-01 -6.133671e-02 5.083112e-03 3.225762e-02
7.450000e+09 5.123325e-03 3.246704e-02 9.901160e-01 -6.173279e-02 9.901160e-01 -6.173272e-02 5.123381e-03 3.246697e-02
7.500000e+09 5.163677e-03 3.267625e-02 9.900676e-01 -6.212875e-02 9.900676e-01 -6.212867e-02 5.163733e-03 3.267617e-02
7.550000e+09 5.204112e-03 3.288532e-02 9.900190e-01 -6.252464e-02 9.900190e-01 -6.252457e-02 5.204168e-03 3.288524e-02
7.600000e+09 5.244630e-03 3.309426e-02 9.899701e-01 -6.292047e-02 9.899701e-01 -6.292040e-02 5.244687e-03 3.309418e-02
7.650000e+09 5.285233e-03 3.330307e-02 9.899210e-01 -6.331623e-02 9.899210e-01 -6.331616e-02 5.285290e-03 3.330300e-02
7.700000e+09 5.325920e-03 3.351177e-02 9.898717e-01 -6.371191e-02 9.898717e-01 -6.371184e-02 5.325977e-03 3.351169e-02
7.750000e+09 5.366691e-03 3.372034e-02 9.898222e-01 -6.410752e-02 9.898221e-01 -6.410745e-02 5.366748e-03 3.372027e-02
7.800000e+09 5.407548e-03 3.392881e-02 9.897724e-01 -6.450305e-02 9.897723e-01 -6.450298e-02 5.407606e-03 3.392873e-02
7.850000e+09 5.448492e-03 3.413716e-02 9.897224e-01 -6.489849e-02 9.897223e-01 -6.489842e-02 5.448550e-03 3.413709e-02
7.900000e+09 5.489523e-03 3.434542e-02 9.896722e-01 -6.529384e-02 9.896721e-01 -6.529378e-02 5.489581e-03 3.434534e-02
7.950000e+09 5.530643e-03 3.455357e-02 9.896217e-01 -6.568911e-02 9.896217e-01 -6.568904e-02 5.530701e-03 3.455349e-02
8.000000e+09 5.571853e-03 3.476162e-02 9.895711e-01 -6.608427e-02 9.895710e-01 -6.608421e-02 5.571911e-03 3.476154e-02
8.050000e+09 5.613155e-03 3.496958e-02 9.895202e-01 -6.647934e-02 9.895201e-01 -6.647928e-02 5.613213e-03 3.496950e-02
8.100000e+09 5.654549e-03 3.517745e-02 9.894691e-01 -6.687431e-02 9.894691e-01 -6.687425e-02 5.654608e-03 3.517737e-02
8.150000e+09 5.696038e-03 3.538523e-02 9.894178e-01 -6.726917e-02 9.894178e-01 -6.726912e-02 5.696097e-03 3.538515e-02
8.200000e+09 5.737623e-03 3.559293e-02 9.893663e-01 -6.766393e-02 9.893663e-01 -6.766388e-02 5.737682e-03 3.559285e-02
8.250000e+09 5.779307e-03 3.580055e-02 9.893146e-01 -6.805858e-02 9.893145e-01 -6.805853e-02 5.779366e-03 3.580046e-02
8.300000e+09 5.821090e-03 3.600808e-02 9.892627e-01 -6.845312e-02 9.892626e-01 -6.845307e-02 5.821149e-03 3.600800e-02
8.350000e+09 5.862975e-03 3.621555e-02 9.892105e-01 -6.884755e-02 9.892105e-01 -6.884749e-02 5.863035e-03 3.621546e-02
8.400000e+09 5.904964e-03 3.642294e-02 9.891582e-01 -6.924186e-02 9.891582e-01 -6.924180e-02 5.905024e-03 3.642285e-02
8.450000e+09 5.947059e-03 3.663025e-02 9.891057e-01 -6.963605e-02 9.891057e-01 -6.963600e-02 5.947119e-03 3.663017e-02
8.500000e+09 5.989261e-03 3.683750e-02 9.890530e-01 -7.003013e-02 9.890530e-01 -7.003008e-02 5.989322e-03 3.683742e-02
8.550000e+09 6.031574e-03 3.704469e-02 9.890001e-01 -7.042408e-02 9.890001e-01 -7.042403e-02 6.031634e-03 3.704460e-02
8.600000e+09 6.073999e-03 3.725180e-02 9.889471e-01 -7.081792e-02 9.889470e-01 -7.081787e-02 6.074060e-03 3.725172e-02
8.650000e+09 6.116539e-03 3.745886e-02 9.888938e-01 -7.121163e-02 9.888938e-01 -7.121158e-02 6.116599e-03 3.745877e-02
8.700000e+09 6.159195e-03 3.766585e-02 9.888404e-01 -7.160522e-02 9.888403e-01 -7.160517e-02 6.159256e-03 3.766577e-02
8.750000e+09 6.201970e-03 3.787278e-02 9.887868e-01 -7.199868e-02 9.887867e-01 -7.199864e-02 6.202031e-03 3.787270e-02
8.800000e+09 6.244866e-03 3.807966e-02 9.887330e-01 -7.239202e-02 9.887329e-01 -7.239198e-02 6.244927e-03 3.807957e-02
8.850000e+09 6.287886e-03 3.828647e-02 9.886790e-01 -7.278523e-02 9.886790e-01 -7.278519e-02 6.287947e-03 3.828639e-02
8.900000e+09 6.331031e-03 3.849323e-02 9.886249e-01 -7.317832e-02 9.886249e-01 -7.317828e-02 6.331093e-03 3.849314e-02
8.950000e+09 6.374305e-03 3.869993e-02 9.885706e-01 -7.357128e-02 9.885706e-01 -7.357124e-02 6.374366e-03 3.869985e-02
9.000000e+09 6.417708e-03 3.890658e-02 9.885161e-01 -7.396412e-02 9.885161e-01 -7.396408e-02 6.417769e-03 3.890649e-02
9.050000e+09 6.461244e-03 3.911317e-02 9.884615e-01 -7.435683e-02 9.884615e-01 -7.435679e-02 6.461305e-03 3.911309e-02
9.100000e+09 6.504914e-03 3.931971e-02 9.884068e-01 -7.474942e-02 9.884067e-01 -7.474938e-02 6.504976e-03 3.931963e-02
9.150000e+09 6.548721e-03 3.952620e-02 9.883518e-01 -7.514187e-02 9.883518e-01 -7.514184e-02 6.548783e-03 3.952611e-02
9.200000e+09 6.592667e-03 3.973263e-02 9.882968e-01 -7.553421e-02 9.882967e-01 -7.553417e-02 6.592729e-03 3.973254e-02
9.250000e+09 6.636754e-03 3.993901e-02 9.882415e-01 -7.592642e-02 9.882415e-01 -7.592639e-02 6.636816e-03 3.993892e-02
9.300000e+09 6.680983e-03 4.014534e-02 9.881862e-01 -7.631851e-02 9.881861e-01 -7.631847e-02 6.681046e-03 4.014525e-02
9.350000e+09 6.725358e-03 4.035161e-02 9.881307e-01 -7.671047e-02 9.881306e-01 -7.671044e-02 6.725421e-03 4.035152e-02
9.400000e+09 6.769880e-03 4.055783e-02 9.880750e-01 -7.710231e-02 9.880750e-01 -7.710228e-02 6.769943e-03 4.055774e-02
9.450000e+09 6.814551e-03 4.076400e-02 9.880192e-01 -7.749403e-02 9.880192e-01 -7.749400e-02 6.814614e-03 4.076390e-02
9.500000e+09 6.859373e-03 4.097011e-02 9.879633e-01 -7.788564e-02 9.879633e-01 -7.788561e-02 6.859436e-03 4.097002e-02
9.550000e+09 6.904348e-03 4.117617e-02 9.879072e-01 -7.827712e-02 9.879072e-01 -7.827709e-02 6.904411e-03 4.117607e-02
9.600000e+09 6.949477e-03 4.138217e-02 9.878510e-01 -7.866849e-02 9.878510e-01 -7.866846e-02 6.949540e-03 4.138208e-02
9.650000e+09 6.994762e-03 4.158812e-02 9.877947e-01 -7.905974e-02 9.877947e-01 -7.905971e-02 6.994825e-03 4.158802e-02
9.700000e+09 7.040205e-03 4.179401e-02 9.877383e-01 -7.945088e-02 9.877382e-01 -7.945085e-02 7.040268e-03 4.179391e-02
9.750000e+09 7.085807e-03 4.199984e-02 9.876817e-01 -7.984190e-02 9.876817e-01 -7.984188e-02 7.085870e-03 4.199975e-02
9.800000e+09 7.131571e-03 4.220562e-02 9.876250e-01 -8.023282e-02 9.876250e-01 -8.023280e-02 7.131634e-03 4.220552e-02
9.850000e+09 7.177496e-03 4.241134e-02 9.875682e-01 -8.062363e-02 9.875682e-01 -8.062360e-02 7.177559e-03 4.241124e-02
9.900000e+09 7.223585e-03 4.261699e-02 9.875113e-01 -8.101433e-02 9.875112e-01 -8.101431e-02 7.223649e-03 4.261690e-02
9.950000e+09 7.269840e-03 4.282259e-02 9.874542e-01 -8.140492e-02 9.874542e-01 -8.140490e-02 7.269903e-03 4.282250e-02
1.000000e+10 7.316260e-03 4.302813e-02 9.873970e-01 -8.179542e-02 9.873970e-01 -8.179540e-02 7.316323e-03 4.302803e-02
1.005000e+10 7.362848e-03 4.323360e-02 9.873398e-01 -8.218581e-02 9.873397e-01 -8.218579e-02 7.362911e-03 4.323350e-02
1.010000e+10 7.409604e-03 4.343901e-02 9.872824e-01 -8.257610e-02 9.872823e-01 -8.257608e-02 7.409667e-03 4.343891e-02
1.015000e+10 7.456529e-03 4.364435e-02 9.872248e-01 -8.296630e-02 9.872248e-01 -8.296628e-02 7.456593e-03 4.364425e-02
1.020000e+10 7.503625e-03 4.384963e-02 9.871672e-01 -8.335640e-02 9.871672e-01 -8.335638e-02 7.503689e-03 4.384953e-02
1.025000e+10 7.550892e-03 4.405484e-02 9.871095e-01 -8.374641e-02 9.871094e-01 -8.374640e-02 7.550956e-03 4.405474e-02
1.030000e+10 7.598331e-03 4.425998e-02 9.870516e-01 -8.413633e-02 9.870516e-01 -8.413632e-02 7.598395e-03 4.425988e-02
1.035000e+10 7.645942e-03 4.446505e-02 9.869937e-01 -8.452617e-02 9.869936e-01 -8.452615e-02 7.646006e-03 4.446495e-02
1.040000e+10 7.693727e-03 4.467005e-02 9.869356e-01 -8.491592e-02 9.869355e-01 -8.491590e-02 7.693791e-03 4.466995e-02
1.045000e+10 7.741685e-03 4.487497e-02 9.868774e-01 -8.530558e-02 9.868774e-01 -8.530557e-02 7.741749e-03 4.487487e-02
1.050000e+10 7.789817e-03 4.507982e-02 9.868191e-01 -8.569516e-02 9.868191e-01 -8.569515e-02 7.789881e-03 4.507972e-02
1.055000e+10 7.838124e-03 4.528460e-02 9.867607e-01 -8.608467e-02 9.867607e-01 -8.608466e-02 7.838188e-03 4.528450e-02
1.060000e+10 7.886605e-03 4.548930e-02 9.867022e-01 -8.647410e-02 9.867022e-01 -8.647409e-02 7.886669e-03 4.548919e-02
1.065000e+10 7.935261e-03 4.569392e-02 9.866436e-01 -8.686345e-02 9.866435e-01 -8.686344e-02 7.935326e-03 4.569381e-02
1.070000e+10 7.984093e-03 4.589845e-02 9.865849e-01 -8.725274e-02 9.865848e-01 -8.725272e-02 7.984157e-03 4.589835e-02
1.075000e+10 8.033099e-03 4.610291e-02 9.865260e-01 -8.764195e-02 9.865260e-01 -8.764194e-02 8.033164e-03 4.610281e-02
1.080000e+10 8.082281e-03 4.630729e-02 9.864671e-01 -8.803110e-02 9.864670e-01 -8.803109e-02 8.082345e-03 4.630718e-02
1.085000e+10 8.131638e-03 4.651158e-02 9.864080e-01 -8.842018e-02 9.864080e-01 -8.842017e-02 8.131702e-03 4.651147e-02
1.090000e+10 8.181169e-03 4.671578e-02 9.863489e-01 -8.880920e-02 9.863488e-01 -8.880919e-02 8.181234e-03 4.671568e-02
1.095000e+10 8.230875e-03 4.691990e-02 9.862896e-01 -8.919815e-02 9.862895e-01 -8.919814e-02 8.230940e-03 4.691979e-02
1.100000e+10 8.280756e-03 4.712393e-02 9.862302e-01 -8.958705e-02 9.862301e-01 -8.958704e-02 8.280821e-03 4.712382e-02
1.105000e+10 8.330810e-03 4.732787e-02 9.861707e-01 -8.997590e-02 9.861706e-01 -8.997589e-02 8.330875e-03 4.732776e-02
1.110000e+10 8.381038e-03 4.753172e-02 9.861111e-01 -9.036469e-02 9.861110e-01 -9.036468e-02 8.381103e-03 4.753161e-02
1.115000e+10 8.431439e-03 4.773548e-02 9.860513e-01 -9.075342e-02 9.860513e-01 -9.075341e-02 8.431504e-03 4.773537e-02
1.120000e+10 8.482013e-03 4.793914e-02 9.859915e-01 -9.114211e-02 9.859914e-01 -9.114210e-02 8.482078e-03 4.793903e-02
1.125000e+10 8.532759e-03 4.814271e-02 9.859315e-01 -9.153074e-02 9.859315e-01 -9.153073e-02 8.532824e-03 4.814260e-02
1.130000e+10 8.583675e-03 4.834619e-02 9.858714e-01 -9.191933e-02 9.858714e-01 -9.191932e-02 8.583741e-03 4.834607e-02
1.135000e+10 8.634763e-03 4.854956e-02 9.858112e-01 -9.230788e-02 9.858112e-01 -9.230787e-02 8.634828e-03 4.854945e-02
1.140000e+10 8.686020e-03 4.875284e-02 9.857509e-01 -9.269638e-02 9.857509e-01 -9.269637e-02 8.686085e-03 4.875273e-02
1.145000e+10 8.737446e-03 4.895603e-02 9.856905e-01 -9.308484e-02 9.856904e-01 -9.308483e-02 8.737512e-03 4.895591e-02
1.150000e+10 8.789041e-03 4.915911e-02 9.856299e-01 -9.347326e-02 9.856299e-01 -9.347325e-02 8.789106e-03 4.915900e-02
1.155000e+10 8.840802e-03 4.936209e-02 9.855692e-01 -9.386164e-02 9.855692e-01 -9.386163e-02 8.840868e-03 4.936198e-02
1.160000e+10 8.892730e-03 4.956497e-02 9.855084e-01 -9.424998e-02 9.855084e-01 -9.424998e-02 8.892796e-03 4.956486e-02
1.165000e+10 8.944824e-03 4.976775e-02 9.854475e-01 -9.463829e-02 9.854474e-01 -9.463828e-02 8.944889e-03 4.976763e-02
1.170000e+10 8.997081e-03 4.997042e-02 9.853864e-01 -9.502657e-02 9.853863e-01 -9.502656e-02 8.997147e-03 4.997031e-02
1.175000e+10 9.049502e-03 5.017300e-02 9.853252e-01 -9.541481e-02 9.853251e-01 -9.541480e-02 9.049568e-03 5.017288e-02
1.180000e+10 9.102085e-03 5.037547e-02 9.852638e-01 -9.580302e-02 9.852638e-01 -9.580301e-02 9.102151e-03 5.037535e-02
1.185000e+10 9.154830e-03 5.057783e-02 9.852024e-01 -9.619119e-02 9.852023e-01 -9.619119e-02 9.154895e-03 5.057771e-02
1.190000e+10 9.207734e-03 5.078009e-02 9.851407e-01 -9.657934e-02 9.851407e-01 -9.657934e-02 9.207800e-03 5.077997e-02
1.195000e+10 9.260797e-03 5.098224e-02 9.850790e-01 -9.696746e-02 9.850789e-01 -9.696746e-02 9.260863e-03 5.098212e-02
1.200000e+10 9.314018e-03 5.118428e-02 9.850171e-01 -9.735555e-02 9.850170e-01 -9.735555e-02 9.314084e-03 5.118417e-02
1.205000e+10 9.367395e-03 5.138622e-02 9.849551e-01 -9.774362e-02 9.849550e-01 -9.774361e-02 9.367461e-03 5.138610e-02
1.210000e+10 9.420928e-03 5.158806e-02 9.848929e-01 -9.813165e-02 9.848928e-01 -9.813165e-02 9.420994e-03 5.158794e-02
1.215000e+10 9.474615e-03 5.178978e-02 9.848305e-01 -9.851967e-02 9.848305e-01 -9.851966e-02 9.474681e-03 5.178966e-02
1.220000e+10 9.528455e-03 5.199140e-02 9.847681e-01 -9.890765e-02 9.847680e-01 -9.890765e-02 9.528521e-03 5.199128e-02
1.225000e+10 9.582446e-03 5.219291e-02 9.847054e-01 -9.929562e-02 9.847054e-01 -9.929561e-02 9.582512e-03 5.219279e-02
1.230000e+10 9.636588e-03 5.239431e-02 9.846427e-01 -9.968355e-02 9.846426e-01 -9.968355e-02 9.636654e-03 5.239419e-02
1.235000e+10 9.690879e-03 5.259561e-02 9.845797e-01 -1.000715e-01 9.845797e-01 -1.000715e-01 9.690945e-03 5.259548e-02
1.240000e+10 9.745318e-03 5.279680e-02 9.845166e-01 -1.004594e-01 9.845166e-01 -1.004594e-01 9.745384e-03 5.279667e-02
1.245000e+10 9.799904e-03 5.299788e-02 9.844534e-01 -1.008472e-01 9.844533e-01 -1.008472e-01 9.799970e-03 5.299775e-02
1.250000e+10 9.854635e-03 5.319885e-02 9.843900e-01 -1.012351e-01 9.843899e-01 -1.012351e-01 9.854702e-03 5.319872e-02
1.255000e+10 9.909511e-03 5.339971e-02 9.843264e-01 -1.016229e-01 9.843263e-01 -1.016229e-01 9.909578e-03 5.339959e-02
1.260000e+10 9.964530e-03 5.360047e-02 9.842626e-01 -1.020107e-01 9.842626e-01 -1.020107e-01 9.964597e-03 5.360035e-02
1.265000e+10 1.001969e-02 5.380113e-02 9.841987e-01 -1.023984e-01 9.841987e-01 -1.023984e-01 1.001976e-02 5.380100e-02
1.270000e+10 1.007499e-02 5.400167e-02 9.841346e-01 -1.027862e-01 9.841346e-01 -1.027862e-01 1.007506e-02 5.400155e-02
1.275000e+10 1.013043e-02 5.420211e-02 9.840704e-01 -1.031739e-01 9.840703e-01 -1.031739e-01 1.013050e-02 5.420198e-02
1.280000e+10 1.018601e-02 5.440245e-02 9.840060e-01 -1.035616e-01 9.840059e-01 -1.035616e-01 1.018608e-02 5.440232e-02
1.285000e+10 1.024173e-02 5.460268e-02 9.839414e-01 -1.039493e-01 9.839413e-01 -1.039493e-01 1.024180e-02 5.460255e-02
1.290000e+10 1.029759e-02 5.480281e-02 9.838766e-01 -1.043369e-01 9.838766e-01 -1.043369e-01 1.029765e-02 5.480268e-02
1.295000e+10 1.035358e-02 5.500283e-02 9.838117e-01 -1.047246e-01 9.838116e-01 -1.047246e-01 1.035364e-02 5.500270e-02
1.300000e+10 1.040970e-02 5.520275e-02 9.837465e-01 -1.051122e-01 9.837465e-01 -1.051121e-01 1.040977e-02 5.520262e-02
1.305000e+10 1.046596e-02 5.540257e-02 9.836812e-01 -1.054997e-01 9.836812e-01 -1.054997e-01 1.046602e-02 5.540243e-02
1.310000e+10 1.052235e-02 5.560228e-02 9.836157e-01 -1.058873e-01 9.836157e-01 -1.058873e-01 1.052241e-02 5.560215e-02
1.315000e+10 1.057887e-02 5.580190e-02 9.835500e-01 -1.062748e-01 9.835500e-01 -1.062748e-01 1.057893e-02 5.580176e-02
1.320000e+10 1.063552e-02 5.600141e-02 9.834842e-01 -1.066623e-01 9.834841e-01 -1.066622e-01 1.063559e-02 5.600128e-02
1.325000e+10 1.069230e-02 5.620083e-02 9.834181e-01 -1.070497e-01 9.834181e-01 -1.070497e-01 1.069237e-02 5.620069e-02
1.330000e+10 1.074921e-02 5.640015e-02 9.833519e-01 -1.074371e-01 9.833518e-01 -1.074371e-01 1.074928e-02 5.640001e-02
1.335000e+10 1.080625e-02 5.659937e-02 9.832854e-01 -1.078245e-01 9.832854e-01 -1.078245e-01 1.080632e-02 5.659923e-02
1.340000e+10 1.086341e-02 5.679849e-02 9.832188e-01 -1.082119e-01 9.832188e-01 -1.082119e-01 1.086348e-02 5.679836e-02
1.345000e+10 1.092071e-02 5.699752e-02 9.831520e-01 -1.085992e-01 9.831519e-01 -1.085992e-01 1.092077e-02 5.699739e-02
1.350000e+10 1.097813e-02 5.719646e-02 9.830850e-01 -1.089865e-01 9.830849e-01 -1.089865e-01 1.097819e-02 5.719632e-02
1.355000e+10 1.103567e-02 5.739530e-02 9.830177e-01 -1.093737e-01 9.830177e-01 -1.093737e-01 1.103574e-02 5.739516e-02
1.360000e+10 1.109334e-02 5.759405e-02 9.829503e-01 -1.097609e-01 9.829503e-01 -1.097609e-01 1.109341e-02 5.759391e-02
1.365000e+10 1.115113e-02 5.779271e-02 9.828827e-01 -1.101481e-01 9.828827e-01 -1.101481e-01 1.115120e-02 5.779257e-02
1.370000e+10 1.120905e-02 5.799128e-02 9.828149e-01 -1.105352e-01 9.828149e-01 -1.105352e-01 1.120912e-02 5.799114e-02
1.375000e+10 1.126709e-02 5.818976e-02 9.827469e-01 -1.109223e-01 9.827468e-01 -1.109223e-01 1.126716e-02 5.818962e-02
1.380000e+10 1.132525e-02 5.838816e-02 9.826787e-01 -1.113093e-01 9.826786e-01 -1.113093e-01 1.132532e-02 5.838801e-02
1.385000e+10 1.138354e-02 5.858646e-02 9.826103e-01 -1.116963e-01 9.826102e-01 -1.116963e-01 1.138361e-02 5.858632e-02
1.390000e+10 1.144195e-02 5.878468e-02 9.825417e-01 -1.120833e-01 9.825416e-01 -1.120833e-01 1.144201e-02 5.878454e-02
1.395000e+10 1.150048e-02 5.898282e-02 9.824728e-01 -1.124702e-01 9.824728e-01 -1.124702e-01 1.150054e-02 5.898267e-02
1.400000e+10 1.155913e-02 5.918087e-02 9.824038e-01 -1.128571e-01 9.824038e-01 -1.128571e-01 1.155920e-02 5.918073e-02
1.405000e+10 1.161790e-02 5.937885e-02 9.823346e-01 -1.132439e-01 9.823345e-01 -1.132439e-01 1.161797e-02 5.937870e-02
1.410000e+10 1.167680e-02 5.957674e-02 9.822651e-01 -1.136306e-01 9.822651e-01 -1.136306e-01 1.167687e-02 5.957659e-02
1.415000e+10 1.173582e-02 5.977455e-02 9.821955e-01 -1.140173e-01 9.821954e-01 -1.140173e-01 1.173589e-02 5.977440e-02
1.420000e+10 1.179496e-02 5.997228e-02 9.821256e-01 -1.144040e-01 9.821256e-01 -1.144040e-01 1.179503e-02 5.997213e-02
1.425000e+10 1.185422e-02 6.016994e-02 9.820556e-01 -1.147906e-01 9.820555e-01 -1.147906e-01 1.185429e-02 6.016979e-02
1.430000e+10 1.191360e-02 6.036752e-02 9.819853e-01 -1.151771e-01 9.819853e-01 -1.151771e-01 1.191367e-02 6.036737e-02
1.435000e+10 1.197311e-02 6.056503e-02 9.819148e-01 -1.155636e-01 9.819148e-01 -1.155636e-01 1.197317e-02 6.056488e-02
1.440000e+10 1.203273e-02 6.076246e-02 9.818442e-01 -1.159500e-01 9.818441e-01 -1.159500e-01 1.203280e-02 6.076231e-02
1.445000e+10 1.209248e-02 6.095982e-02 9.817733e-01 -1.163364e-01 9.817732e-01 -1.163364e-01 1.209255e-02 6.095967e-02
1.450000e+10 1.215235e-02 6.115711e-02 9.817022e-01 -1.167227e-01 9.817021e-01 -1.167227e-01 1.215242e-02 6.115696e-02
1.455000e+10 1.221235e-02 6.135433e-02 9.816309e-01 -1.171089e-01 9.816308e-01 -1.171089e-01 1.221242e-02 6.135417e-02
1.460000e+10 1.227247e-02 6.155148e-02 9.815594e-01 -1.174951e-01 9.815593e-01 -1.174951e-01 1.227253e-02 6.155132e-02
1.465000e+10 1.233271e-02 6.174856e-02 9.814877e-01 -1.178812e-01 9.814876e-01 -1.178812e-01 1.233278e-02 6.174841e-02
1.470000e+10 1.239307e-02 6.194558e-02 9.814157e-01 -1.182672e-01 9.814157e-01 -1.182672e-01 1.239314e-02 6.194542e-02
1.475000e+10 1.245356e-02 6.214253e-02 9.813436e-01 -1.186532e-01 9.813436e-01 -1.186532e-01 1.245363e-02 6.214237e-02
1.480000e+10 1.251418e-02 6.233941e-02 9.812713e-01 -1.190391e-01 9.812712e-01 -1.190391e-01 1.251425e-02 6.233925e-02
1.485000e+10 1.257492e-02 6.253623e-02 9.811987e-01 -1.194249e-01 9.811987e-01 -1.194249e-01 1.257499e-02 6.253607e-02
1.490000e+10 1.263579e-02 6.273299e-02 9.811260e-01 -1.198107e-01 9.811259e-01 -1.198107e-01 1.263585e-02 6.273283e-02
1.495000e+10 1.269678e-02 6.292969e-02 9.810530e-01 -1.201964e-01 9.810530e-01 -1.201964e-01 1.269685e-02 6.292952e-02
1.500000e+10 1.275790e-02 6.312632e-02 9.809799e-01 -1.205820e-01 9.809798e-01 -1.205820e-01 1.275797e-02 6.312616e-02
1.505000e+10 1.281915e-02 6.332290e-02 9.809065e-01 -1.209675e-01 9.809065e-01 -1.209675e-01 1.281921e-02 6.332273e-02
1.510000e+10 1.288052e-02 6.351941e-02 9.808330e-01 -1.213530e-01 9.808329e-01 -1.213530e-01 1.288059e-02 6.351924e-02
1.515000e+10 1.294203e-02 6.371587e-02 9.807592e-01 -1.217384e-01 9.807591e-01 -1.217384e-01 1.294210e-02 6.371570e-02
1.520000e+10 1.300367e-02 6.391227e-02 9.806852e-01 -1.221237e-01 9.806852e-01 -1.221237e-01 1.300373e-02 6.391210e-02
1.525000e+10 1.306543e-02 6.410861e-02 9.806111e-01 -1.225089e-01 9.806110e-01 -1.225089e-01 1.306550e-02 6.410844e-02
1.530000e+10 1.312733e-02 6.430489e-02 9.805367e-01 -1.228941e-01 9.805366e-01 -1.228940e-01 1.312740e-02 6.430472e-02
1.535000e+10 1.318937e-02 6.450112e-02 9.804621e-01 -1.232791e-01 9.804621e-01 -1.232791e-01 1.318943e-02 6.450095e-02
1.540000e+10 1.325153e-02 6.469730e-02 9.803874e-01 -1.236641e-01 9.803873e-01 -1.236641e-01 1.325160e-02 6.469712e-02
1.545000e+10 1.331383e-02 6.489342e-02 9.803124e-01 -1.240490e-01 9.803124e-01 -1.240490e-01 1.331389e-02 6.489324e-02
1.550000e+10 1.337626e-02 6.508948e-02 9.802373e-01 -1.244338e-01 9.802372e-01 -1.244338e-01 1.337633e-02 6.508931e-02
1.555000e+10 1.343883e-02 6.528550e-02 9.801619e-01 -1.248186e-01 9.801618e-01 -1.248186e-01 1.343890e-02 6.528532e-02
1.560000e+10 1.350154e-02 6.548146e-02 9.800864e-01 -1.252032e-01 9.800863e-01 -1.252032e-01 1.350161e-02 6.548128e-02
1.565000e+10 1.356439e-02 6.567736e-02 9.800106e-01 -1.255878e-01 9.800106e-01 -1.255878e-01 1.356445e-02 6.567718e-02
1.570000e+10 1.362737e-02 6.587322e-02 9.799347e-01 -1.259723e-01 9.799346e-01 -1.259723e-01 1.362743e-02 6.587304e-02
1.575000e+10 1.369049e-02 6.606902e-02 9.798586e-01 -1.263567e-01 9.798585e-01 -1.263567e-01 1.369055e-02 6.606884e-02
1.580000e+10 1.375376e-02 6.626477e-02 9.797822e-01 -1.267410e-01 9.797822e-01 -1.267410e-01 1.375382e-02 6.626459e-02
1.585000e+10 1.381716e-02 6.646047e-02 9.797057e-01 -1.271253e-01 9.797057e-01 -1.271252e-01 1.381722e-02 6.646029e-02
1.590000e+10 1.388071e-02 6.665612e-02 9.796290e-01 -1.275094e-01 9.796290e-01 -1.275094e-01 1.388077e-02 6.665594e-02
1.595000e+10 1.394440e-02 6.685172e-02 9.795522e-01 -1.278935e-01 9.795521e-01 -1.278934e-01 1.394446e-02 6.685153e-02
1.600000e+10 1.400823e-02 6.704727e-02 9.794751e-01 -1.282774e-01 9.794751e-01 -1.282774e-01 1.400829e-02 6.704708e-02
1.605000e+10 1.407221e-02 6.724277e-02 9.793979e-01 -1.286613e-01 9.793978e-01 -1.286613e-01 1.407227e-02 6.724258e-02
1.610000e+10 1.413634e-02 6.743821e-02 9.793204e-01 -1.290451e-01 9.793204e-01 -1.290451e-01 1.413640e-02 6.743802e-02
1.615000e+10 1.420061e-02 6.763361e-02 9.792428e-01 -1.294289e-01 9.792428e-01 -1.294288e-01 1.420067e-02 6.763342e-02
1.620000e+10 1.426503e-02 6.782895e-02 9.791650e-01 -1.298125e-01 9.791650e-01 -1.298125e-01 1.426509e-02 6.782876e-02
1.625000e+10 1.432960e-02 6.802424e-02 9.790870e-01 -1.301960e-01 9.790870e-01 -1.301960e-01 1.432965e-02 6.802405e-02
1.630000e+10 1.439431e-02 6.821949e-02 9.790089e-01 -1.305795e-01 9.790088e-01 -1.305795e-01 1.439437e-02 6.821929e-02
1.635000e+10 1.445918e-02 6.841468e-02 9.789306e-01 -1.309629e-01 9.789305e-01 -1.309629e-01 1.445924e-02 6.841448e-02
1.640000e+10 1.452420e-02 6.860982e-02 9.788521e-01 -1.313462e-01 9.788520e-01 -1.313461e-01 1.452426e-02 6.860962e-02
1.645000e+10 1.458937e-02 6.880491e-02 9.787734e-01 -1.317294e-01 9.787733e-01 -1.317294e-01 1.458943e-02 6.880471e-02
1.650000e+10 1.465470e-02 6.899994e-02 9.786945e-01 -1.321125e-01 9.786945e-01 -1.321125e-01 1.465475e-02 6.899974e-02
1.655000e+10 1.472017e-02 6.919493e-02 9.786155e-01 -1.324956e-01 9.786154e-01 -1.324955e-01 1.472023e-02 6.919473e-02
1.660000e+10 1.478580e-02 6.938986e-02 9.785363e-01 -1.328785e-01 9.785362e-01 -1.328785e-01 1.478586e-02 6.938966e-02
1.665000e+10 1.485159e-02 6.958474e-02 9.784569e-01 -1.332614e-01 9.784569e-01 -1.332614e-01 1.485164e-02 6.958454e-02
1.670000e+10 1.491753e-02 6.977957e-02 9.783774e-01 -1.336442e-01 9.783773e-01 -1.336442e-01 1.491758e-02 6.977936e-02
1.675000e+10 1.498363e-02 6.997434e-02 9.782976e-01 -1.340269e-01 9.782976e-01 -1.340269e-01 1.498368e-02 6.997413e-02
1.680000e+10 1.504988e-02 7.016906e-02 9.782178e-01 -1.344095e-01 9.782177e-01 -1.344095e-01 1.504993e-02 7.016885e-02
1.685000e+10 1.511630e-02 7.036372e-02 9.781377e-01 -1.347921e-01 9.781377e-01 -1.347921e-01 1.511635e-02 7.036351e-02
1.690000e+10 1.518287e-02 7.055833e-02 9.780575e-01 -1.351746e-01 9.780575e-01 -1.351745e-01 1.518291e-02 7.055812e-02
1.695000e+10 1.524959e-02 7.075288e-02 9.779771e-01 -1.355570e-01 9.779771e-01 -1.355569e-01 1.524964e-02 7.075267e-02
1.700000e+10 1.531648e-02 7.094737e-02 9.778966e-01 -1.359393e-01 9.778965e-01 -1.359393e-01 1.531653e-02 7.094716e-02
1.705000e+10 1.538353e-02 7.114181e-02 9.778159e-01 -1.363215e-01 9.778158e-01 -1.363215e-01 1.538358e-02 7.114160e-02
1.710000e+10 1.545074e-02 7.133619e-02 9.777350e-01 -1.367037e-01 9.777349e-01 -1.367037e-01 1.545078e-02 7.133598e-02
1.715000e+10 1.551810e-02 7.153052e-02 9.776540e-01 -1.370858e-01 9.776539e-01 -1.370858e-01 1.551815e-02 7.153030e-02
1.720000e+10 1.558563e-02 7.172478e-02 9.775728e-01 -1.374678e-01 9.775727e-01 -1.374678e-01 1.558567e-02 7.172457e-02
1.725000e+10 1.565332e-02 7.191898e-02 9.774914e-01 -1.378498e-01 9.774913e-01 -1.378497e-01 1.565336e-02 7.191877e-02
1.730000e+10 1.572117e-02 7.211313e-02 9.774099e-01 -1.382317e-01 9.774098e-01 -1.382316e-01 1.572121e-02 7.211291e-02
1.735000e+10 1.578918e-02 7.230721e-02 9.773282e-01 -1.386135e-01 9.773281e-01 -1.386134e-01 1.578922e-02 7.230699e-02
1.740000e+10 1.585735e-02 7.250123e-02 9.772464e-01 -1.389952e-01 9.772463e-01 -1.389952e-01 1.585739e-02 7.250101e-02
1.745000e+10 1.592569e-02 7.269519e-02 9.771644e-01 -1.393769e-01 9.771643e-01 -1.393768e-01 1.592573e-02 7.269497e-02
1.750000e+10 1.599418e-02 7.288909e-02 9.770822e-01 -1.397585e-01 9.770821e-01 -1.397584e-01 1.599422e-02 7.288886e-02
1.755000e+10 1.606284e-02 7.308292e-02 9.769999e-01 -1.401400e-01 9.769998e-01 -1.401400e-01 1.606288e-02 7.308269e-02
1.760000e+10 1.613166e-02 7.327668e-02 9.769174e-01 -1.405215e-01 9.769174e-01 -1.405214e-01 1.613170e-02 7.327646e-02
1.765000e+10 1.620065e-02 7.347038e-02 9.768348e-01 -1.409029e-01 9.768347e-01 -1.409028e-01 1.620068e-02 7.347016e-02
1.770000e+10 1.626979e-02 7.366402e-02 9.767520e-01 -1.412842e-01 9.767519e-01 -1.412842e-01 1.626982e-02 7.366379e-02
1.775000e+10 1.633910e-02 7.385758e-02 9.766690e-01 -1.416655e-01 9.766690e-01 -1.416655e-01 1.633913e-02 7.385736e-02
1.780000e+10 1.640856e-02 7.405108e-02 9.765859e-01 -1.420467e-01 9.765859e-01 -1.420467e-01 1.640860e-02 7.405085e-02
1.785000e+10 1.647819e-02 7.424451e-02 9.765027e-01 -1.424279e-01 9.765026e-01 -1.424278e-01 1.647822e-02 7.424428e-02
1.790000e+10 1.654798e-02 7.443787e-02 9.764193e-01 -1.428090e-01 9.764192e-01 -1.428089e-01 1.654801e-02 7.443764e-02
1.795000e+10 1.661794e-02 7.463116e-02 9.763357e-01 -1.431900e-01 9.763356e-01 -1.431900e-01 1.661796e-02 7.463093e-02
1.800000e+10 1.668805e-02 7.482438e-02 9.762520e-01 -1.435710e-01 9.762519e-01 -1.435710e-01 1.668808e-02 7.482415e-02
1.805000e+10 1.675832e-02 7.501753e-02 9.761681e-01 -1.439520e-01 9.761680e-01 -1.439519e-01 1.675835e-02 7.501730e-02
1.810000e+10 1.682875e-02 7.521060e-02 9.760840e-01 -1.443328e-01 9.760840e-01 -1.443328e-01 1.682878e-02 7.521037e-02
1.815000e+10 1.689934e-02 7.540361e-02 9.759998e-01 -1.447137e-01 9.759998e-01 -1.447136e-01 1.689937e-02 7.540337e-02
1.820000e+10 1.697010e-02 7.559653e-02 9.759155e-01 -1.450944e-01 9.759154e-01 -1.450944e-01 1.697012e-02 7.559630e-02
1.825000e+10 1.704101e-02 7.578939e-02 9.758310e-01 -1.454752e-01 9.758309e-01 -1.454751e-01 1.704103e-02 7.578915e-02
1.830000e+10 1.711207e-02 7.598216e-02 9.757463e-01 -1.458558e-01 9.757463e-01 -1.458558e-01 1.711209e-02 7.598193e-02
1.835000e+10 1.718330e-02 7.617487e-02 9.756615e-01 -1.462364e-01 9.756614e-01 -1.462364e-01 1.718332e-02 7.617463e-02
1.840000e+10 1.725468e-02 7.636749e-02 9.755765e-01 -1.466170e-01 9.755764e-01 -1.466170e-01 1.725470e-02 7.636725e-02
1.845000e+10 1.732622e-02 7.656004e-02 9.754913e-01 -1.469975e-01 9.754913e-01 -1.469975e-01 1.732624e-02 7.655980e-02
1.850000e+10 1.739791e-02 7.675251e-02 9.754060e-01 -1.473780e-01 9.754060e-01 -1.473780e-01 1.739793e-02 7.675227e-02
1.855000e+10 1.746976e-02 7.694490e-02 9.753206e-01 -1.477585e-01 9.753205e-01 -1.477584e-01 1.746977e-02 7.694466e-02
1.860000e+10 1.754176e-02 7.713722e-02 9.752350e-01 -1.481388e-01 9.752349e-01 -1.481388e-01 1.754178e-02 7.713697e-02
1.865000e+10 1.761392e-02 7.732945e-02 9.751492e-01 -1.485192e-01 9.751491e-01 -1.485191e-01 1.761393e-02 7.732921e-02
1.870000e+10 1.768623e-02 7.752160e-02 9.750632e-01 -1.488995e-01 9.750632e-01 -1.488994e-01 1.768624e-02 7.752136e-02
1.875000e+10 1.775869e-02 7.771368e-02 9.749771e-01 -1.492797e-01 9.749771e-01 -1.492797e-01 1.775870e-02 7.771343e-02
1.880000e+10 1.783130e-02 7.790567e-02 9.748909e-01 -1.496600e-01 9.748908e-01 -1.496599e-01 1.783130e-02 7.790543e-02
1.885000e+10 1.790406e-02 7.809758e-02 9.748044e-01 -1.500401e-01 9.748044e-01 -1.500401e-01 1.790406e-02 7.809734e-02
1.890000e+10 1.797697e-02 7.828941e-02 9.747178e-01 -1.504203e-01 9.747178e-01 -1.504202e-01 1.797697e-02 7.828917e-02
1.895000e+10 1.805002e-02 7.848116e-02 9.746311e-01 -1.508004e-01 9.746310e-01 -1.508003e-01 1.805003e-02 7.848092e-02
1.900000e+10 1.812323e-02 7.867283e-02 9.745442e-01 -1.511804e-01 9.745441e-01 -1.511804e-01 1.812323e-02 7.867258e-02
1.905000e+10 1.819658e-02 7.886441e-02 9.744571e-01 -1.515604e-01 9.744570e-01 -1.515604e-01 1.819658e-02 7.886417e-02
1.910000e+10 1.827007e-02 7.905592e-02 9.743698e-01 -1.519404e-01 9.743698e-01 -1.519404e-01 1.827007e-02 7.905567e-02
1.915000e+10 1.834371e-02 7.924734e-02 9.742824e-01 -1.523204e-01 9.742824e-01 -1.523203e-01 1.834371e-02 7.924709e-02
1.920000e+10 1.841750e-02 7.943867e-02 9.741948e-01 -1.527003e-01 9.741948e-01 -1.527002e-01 1.841749e-02 7.943842e-02
1.925000e+10 1.849142e-02 7.962993e-02 9.741071e-01 -1.530801e-01 9.741070e-01 -1.530801e-01 1.849142e-02 7.962968e-02
1.930000e+10 1.856549e-02 7.982110e-02 9.740191e-01 -1.534600e-01 9.740191e-01 -1.534599e-01 1.856548e-02 7.982085e-02
1.935000e+10 1.863970e-02 8.001218e-02 9.739310e-01 -1.538398e-01 9.739310e-01 -1.538397e-01 1.863969e-02 8.001193e-02
1.940000e+10 1.871404e-02 8.020319e-02 9.738428e-01 -1.542195e-01 9.738428e-01 -1.542194e-01 1.871403e-02 8.020294e-02
1.945000e+10 1.878853e-02 8.039411e-02 9.737543e-01 -1.545992e-01 9.737543e-01 -1.545992e-01 1.878852e-02 8.039386e-02
1.950000e+10 1.886315e-02 8.058495e-02 9.736657e-01 -1.549789e-01 9.736657e-01 -1.549788e-01 1.886314e-02 8.058470e-02
1.955000e+10 1.893790e-02 8.077571e-02 9.735770e-01 -1.553586e-01 9.735769e-01 -1.553585e-01 1.893789e-02 8.077545e-02
1.960000e+10 1.901280e-02 8.096638e-02 9.734880e-01 -1.557382e-01 9.734880e-01 -1.557381e-01 1.901278e-02 8.096613e-02
1.965000e+10 1.908782e-02 8.115697e-02 9.733989e-01 -1.561177e-01 9.733989e-01 -1.561177e-01 1.908781e-02 8.115672e-02
1.970000e+10 1.916298e-02 8.134748e-02 9.733096e-01 -1.564973e-01 9.733096e-01 -1.564972e-01 1.916296e-02 8.134723e-02
1.975000e+10 1.923827e-02 8.153791e-02 9.732201e-01 -1.568768e-01 9.732201e-01 -1.568767e-01 1.923825e-02 8.153765e-02
1.980000e+10 1.931369e-02 8.172826e-02 9.731304e-01 -1.572562e-01 9.731304e-01 -1.572562e-01 1.931367e-02 8.172800e-02
1.985000e+10 1.938924e-02 8.191852e-02 9.730406e-01 -1.576356e-01 9.730406e-01 -1.576356e-01 1.938922e-02 8.191826e-02
1.990000e+10 1.946492e-02 8.210870e-02 9.729506e-01 -1.580150e-01 9.729506e-01 -1.580150e-01 1.946490e-02 8.210845e-02
1.995000e+10 1.954073e-02 8.229881e-02 9.728604e-01 -1.583944e-01 9.728604e-01 -1.583943e-01 1.954071e-02 8.229855e-02
2.000000e+10 1.961667e-02 8.248883e-02 9.727700e-01 -1.587737e-01 9.727700e-01 -1.587736e-01 1.961664e-02 8.248858e-02
2.005000e+10 1.969273e-02 8.267878e-02 9.726795e-01 -1.591530e-01 9.726795e-01 -1.591529e-01 1.969270e-02 8.267852e-02
2.010000e+10 1.976892e-02 8.286865e-02 9.725888e-01 -1.595322e-01 9.725887e-01 -1.595321e-01 1.976889e-02 8.286839e-02
2.015000e+10 1.984523e-02 8.305843e-02 9.724978e-01 -1.599114e-01 9.724978e-01 -1.599113e-01 1.984520e-02 8.305818e-02
2.020000e+10 1.992166e-02 8.324815e-02 9.724068e-01 -1.602905e-01 9.724067e-01 -1.602905e-01 1.992163e-02 8.324789e-02
2.025000e+10 1.999822e-02 8.343778e-02 9.723155e-01 -1.606696e-01 9.723155e-01 -1.606696e-01 1.999819e-02 8.343752e-02
2.030000e+10 2.007490e-02 8.362734e-02 9.722240e-01 -1.610487e-01 9.722240e-01 -1.610486e-01 2.007486e-02 8.362708e-02
2.035000e+10 2.015170e-02 8.381682e-02 9.721324e-01 -1.614277e-01 9.721323e-01 -1.614277e-01 2.015166e-02 8.381656e-02
2.040000e+10 2.022861e-02 8.400623e-02 9.720405e-01 -1.618067e-01 9.720405e-01 -1.618066e-01 2.022858e-02 8.400597e-02
2.045000e+10 2.030565e-02 8.419556e-02 9.719485e-01 -1.621856e-01 9.719485e-01 -1.621856e-01 2.030562e-02 8.419530e-02
2.050000e+10 2.038281e-02 8.438482e-02 9.718563e-01 -1.625645e-01 9.718563e-01 -1.625645e-01 2.038277e-02 8.438456e-02
2.055000e+10 2.046009e-02 8.457401e-02 9.717639e-01 -1.629434e-01 9.717639e-01 -1.629433e-01 2.046005e-02 8.457375e-02
2.060000e+10 2.053748e-02 8.476313e-02 9.716714e-01 -1.633222e-01 9.716714e-01 -1.633221e-01 2.053744e-02 8.476287e-02
2.065000e+10 2.061499e-02 8.495217e-02 9.715786e-01 -1.637009e-01 9.715786e-01 -1.637009e-01 2.061495e-02 8.495191e-02
2.070000e+10 2.069262e-02 8.514115e-02 9.714857e-01 -1.640796e-01 9.714857e-01 -1.640796e-01 2.069258e-02 8.514089e-02
2.075000e+10 2.077036e-02 8.533006e-02 9.713925e-01 -1.644583e-01 9.713925e-01 -1.644582e-01 2.077032e-02 8.532980e-02
2.080000e+10 2.084822e-02 8.551890e-02 9.712992e-01 -1.648369e-01 9.712992e-01 -1.648368e-01 2.084817e-02 8.551864e-02
2.085000e+10 2.092619e-02 8.570767e-02 9.712057e-01 -1.652154e-01 9.712057e-01 -1.652154e-01 2.092615e-02 8.570741e-02
2.090000e+10 2.100428e-02 8.589638e-02 9.711120e-01 -1.655939e-01 9.711120e-01 -1.655939e-01 2.100423e-02 8.589612e-02
2.095000e+10 2.108248e-02 8.608502e-02 9.710182e-01 -1.659724e-01 9.710181e-01 -1.659723e-01 2.108243e-02 8.608476e-02
2.100000e+10 2.116080e-02 8.627360e-02 9.709241e-01 -1.663508e-01 9.709241e-01 -1.663507e-01 2.116075e-02 8.627333e-02
2.105000e+10 2.123923e-02 8.646211e-02 9.708298e-01 -1.667291e-01 9.708298e-01 -1.667290e-01 2.123918e-02 8.646185e-02
2.110000e+10 2.131777e-02 8.665056e-02 9.707354e-01 -1.671074e-01 9.707354e-01 -1.671073e-01 2.131772e-02 8.665030e-02
2.115000e+10 2.139643e-02 8.683895e-02 9.706408e-01 -1.674856e-01 9.706408e-01 -1.674855e-01 2.139638e-02 8.683869e-02
2.120000e+10 2.147520e-02 8.702728e-02 9.705460e-01 -1.678637e-01 9.705460e-01 -1.678637e-01 2.147515e-02 8.702702e-02
2.125000e+10 2.155408e-02 8.721555e-02 9.704510e-01 -1.682418e-01 9.704510e-01 -1.682418e-01 2.155403e-02 8.721529e-02
2.130000e+10 2.163308e-02 8.740376e-02 9.703558e-01 -1.686199e-01 9.703558e-01 -1.686198e-01 2.163302e-02 8.740350e-02
2.135000e+10 2.171219e-02 8.759192e-02 9.702604e-01 -1.689978e-01 9.702604e-01 -1.689978e-01 2.171213e-02 8.759165e-02
2.140000e+10 2.179142e-02 8.778001e-02 9.701649e-01 -1.693758e-01 9.701649e-01 -1.693757e-01 2.179136e-02 8.777975e-02
2.145000e+10 2.187075e-02 8.796805e-02 9.700691e-01 -1.697536e-01 9.700691e-01 -1.697535e-01 2.187069e-02 8.796779e-02
2.150000e+10 2.195020e-02 8.815604e-02 9.699732e-01 -1.701314e-01 9.699732e-01 -1.701313e-01 2.195014e-02 8.815578e-02
2.155000e+10 2.202977e-02 8.834398e-02 9.698771e-01 -1.705091e-01 9.698771e-01 -1.705090e-01 2.202971e-02 8.834371e-02
2.160000e+10 2.210945e-02 8.853186e-02 9.697808e-01 -1.708867e-01 9.697808e-01 -1.708867e-01 2.210939e-02 8.853159e-02
2.165000e+10 2.218924e-02 8.871968e-02 9.696844e-01 -1.712643e-01 9.696844e-01 -1.712642e-01 2.218918e-02 8.871942e-02
2.170000e+10 2.226915e-02 8.890746e-02 9.695877e-01 -1.716418e-01 9.695877e-01 -1.716417e-01 2.226909e-02 8.890720e-02
2.175000e+10 2.234918e-02 8.909519e-02 9.694909e-01 -1.720192e-01 9.694909e-01 -1.720192e-01 2.234911e-02 8.909492e-02
2.180000e+10 2.242932e-02 8.928287e-02 9.693939e-01 -1.723966e-01 9.693939e-01 -1.723965e-01 2.242925e-02 8.928260e-02
2.185000e+10 2.250958e-02 8.947049e-02 9.692967e-01 -1.727739e-01 9.692967e-01 -1.727738e-01 2.250951e-02 8.947023e-02
2.190000e+10 2.258995e-02 8.965808e-02 9.691993e-01 -1.731511e-01 9.691993e-01 -1.731510e-01 2.258988e-02 8.965781e-02
2.195000e+10 2.267044e-02 8.984561e-02 9.691018e-01 -1.735282e-01 9.691018e-01 -1.735282e-01 2.267037e-02 8.984534e-02
2.200000e+10 2.275105e-02 9.003310e-02 9.690041e-01 -1.739053e-01 9.690041e-01 -1.739052e-01 2.275098e-02 9.003283e-02
2.205000e+10 2.283178e-02 9.022054e-02 9.689062e-01 -1.742823e-01 9.689062e-01 -1.742822e-01 2.283171e-02 9.022027e-02
2.210000e+10 2.291263e-02 9.040793e-02 9.688081e-01 -1.746592e-01 9.688081e-01 -1.746591e-01 2.291256e-02 9.040767e-02
2.215000e+10 2.299360e-02 9.059528e-02 9.687099e-01 -1.750360e-01 9.687099e-01 -1.750360e-01 2.299353e-02 9.059502e-02
2.220000e+10 2.307469e-02 9.078259e-02 9.686115e-01 -1.754128e-01 9.686114e-01 -1.754127e-01 2.307462e-02 9.078233e-02
2.225000e+10 2.315590e-02 9.096985e-02 9.685129e-01 -1.757894e-01 9.685129e-01 -1.757894e-01 2.315583e-02 9.096959e-02
2.230000e+10 2.323724e-02 9.115707e-02 9.684141e-01 -1.761660e-01 9.684141e-01 -1.761660e-01 2.323716e-02 9.115681e-02
2.235000e+10 2.331870e-02 9.134425e-02 9.683152e-01 -1.765425e-01 9.683152e-01 -1.765425e-01 2.331862e-02 9.134399e-02
2.240000e+10 2.340028e-02 9.153139e-02 9.682161e-01 -1.769189e-01 9.682161e-01 -1.769189e-01 2.340020e-02 9.153112e-02
2.245000e+10 2.348199e-02 9.171848e-02 9.681169e-01 -1.772953e-01 9.681169e-01 -1.772952e-01 2.348191e-02 9.171821e-02
2.250000e+10 2.356383e-02 9.190553e-02 9.680175e-01 -1.776715e-01 9.680174e-01 -1.776715e-01 2.356375e-02 9.190526e-02
2.255000e+10 2.364579e-02 9.209254e-02 9.679179e-01 -1.780477e-01 9.679179e-01 -1.780477e-01 2.364571e-02 9.209227e-02
2.260000e+10 2.372788e-02 9.227951e-02 9.678181e-01 -1.784238e-01 9.678181e-01 -1.784238e-01 2.372781e-02 9.227924e-02
2.265000e+10 2.381011e-02 9.246643e-02 9.677182e-01 -1.787998e-01 9.677182e-01 -1.787998e-01 2.381003e-02 9.246617e-02
2.270000e+10 2.389246e-02 9.265332e-02 9.676182e-01 -1.791758e-01 9.676181e-01 -1.791757e-01 2.389238e-02 9.265305e-02
2.275000e+10 2.397495e-02 9.284016e-02 9.675180e-01 -1.795516e-01 9.675179e-01 -1.795516e-01 2.397487e-02 9.283990e-02
2.280000e+10 2.405757e-02 9.302696e-02 9.674176e-01 -1.799274e-01 9.674176e-01 -1.799273e-01 2.405749e-02 9.302670e-02
2.285000e+10 2.414032e-02 9.321372e-02 9.673170e-01 -1.803030e-01 9.673170e-01 -1.803030e-01 2.414024e-02 9.321346e-02
2.290000e+10 2.422321e-02 9.340044e-02 9.672164e-01 -1.806786e-01 9.672163e-01 -1.806786e-01 2.422313e-02 9.340018e-02
2.295000e+10 2.430624e-02 9.358712e-02 9.671155e-01 -1.810541e-01 9.671155e-01 -1.810541e-01 2.430616e-02 9.358685e-02
2.300000e+10 2.438940e-02 9.377376e-02 9.670145e-01 -1.814296e-01 9.670145e-01 -1.814295e-01 2.438932e-02 9.377349e-02
2.305000e+10 2.447271e-02 9.396035e-02 9.669134e-01 -1.818049e-01 9.669134e-01 -1.818049e-01 2.447262e-02 9.396008e-02
2.310000e+10 2.455615e-02 9.414690e-02 9.668121e-01 -1.821802e-01 9.668121e-01 -1.821801e-01 2.455607e-02 9.414663e-02
2.315000e+10 2.463974e-02 9.433341e-02 9.667107e-01 -1.825553e-01 9.667106e-01 -1.825553e-01 2.463965e-02 9.433314e-02
2.320000e+10 2.472346e-02 9.451987e-02 9.666091e-01 -1.829304e-01 9.666091e-01 -1.829304e-01 2.472338e-02 9.451960e-02
2.325000e+10 2.480734e-02 9.470629e-02 9.665074e-01 -1.833055e-01 9.665073e-01 -1.833054e-01 2.480725e-02 9.470602e-02
2.330000e+10 2.489135e-02 9.489266e-02 9.664055e-01 -1.836804e-01 9.664055e-01 -1.836803e-01 2.489127e-02 9.489239e-02
2.335000e+10 2.497551e-02 9.507899e-02 9.663035e-01 -1.840552e-01 9.663034e-01 -1.840552e-01 2.497543e-02 9.507872e-02
2.340000e+10 2.505983e-02 9.526527e-02 9.662013e-01 -1.844300e-01 9.662013e-01 -1.844300e-01 2.505974e-02 9.526500e-02
2.345000e+10 2.514428e-02 9.545150e-02 9.660990e-01 -1.848047e-01 9.660990e-01 -1.848047e-01 2.514420e-02 9.545123e-02
2.350000e+10 2.522889e-02 9.563769e-02 9.659966e-01 -1.851793e-01 9.659965e-01 -1.851793e-01 2.522881e-02 9.563742e-02
2.355000e+10 2.531365e-02 9.582382e-02 9.658940e-01 -1.855539e-01 9.658940e-01 -1.855538e-01 2.531356e-02 9.582355e-02
2.360000e+10 2.539856e-02 9.600991e-02 9.657913e-01 -1.859283e-01 9.657913e-01 -1.859283e-01 2.539847e-02 9.600964e-02
2.365000e+10 2.548362e-02 9.619594e-02 9.656884e-01 -1.863027e-01 9.656884e-01 -1.863026e-01 2.548354e-02 9.619567e-02
2.370000e+10 2.556884e-02 9.638192e-02 9.655854e-01 -1.866770e-01 9.655854e-01 -1.866770e-01 2.556875e-02 9.638165e-02
2.375000e+10 2.565421e-02 9.656785e-02 9.654823e-01 -1.870512e-01 9.654823e-01 -1.870512e-01 2.565413e-02 9.656758e-02
2.380000e+10 2.573974e-02 9.675373e-02 9.653791e-01 -1.874254e-01 9.653790e-01 -1.874254e-01 2.573965e-02 9.675345e-02
2.385000e+10 2.582542e-02 9.693955e-02 9.652757e-01 -1.877995e-01 9.652756e-01 -1.877995e-01 2.582534e-02 9.693927e-02
2.390000e+10 2.591126e-02 9.712531e-02 9.651721e-01 -1.881735e-01 9.651721e-01 -1.881735e-01 2.591118e-02 9.712503e-02
2.395000e+10 2.599726e-02 9.731101e-02 9.650685e-01 -1.885475e-01 9.650684e-01 -1.885474e-01 2.599718e-02 9.731073e-02
2.400000e+10 2.608342e-02 9.749665e-02 9.649647e-01 -1.889214e-01 9.649647e-01 -1.889213e-01 2.608334e-02 9.749637e-02
2.405000e+10 2.616974e-02 9.768223e-02 9.648608e-01 -1.892952e-01 9.648607e-01 -1.892951e-01 2.616966e-02 9.768195e-02
2.410000e+10 2.625622e-02 9.786775e-02 9.647567e-01 -1.896690e-01 9.647567e-01 -1.896689e-01 2.625613e-02 9.786747e-02
2.415000e+10 2.634286e-02 9.805320e-02 9.646525e-01 -1.900427e-01 9.646525e-01 -1.900426e-01 2.634277e-02 9.805292e-02
2.420000e+10 2.642966e-02 9.823859e-02 9.645482e-01 -1.904163e-01 9.645482e-01 -1.904162e-01 2.642958e-02 9.823831e-02
2.425000e+10 2.651663e-02 9.842391e-02 9.644437e-01 -1.907899e-01 9.644437e-01 -1.907898e-01 2.651654e-02 9.842363e-02
2.430000e+10 2.660376e-02 9.860916e-02 9.643392e-01 -1.911634e-01 9.643391e-01 -1.911633e-01 2.660367e-02 9.860888e-02
2.435000e+10 2.669105e-02 9.879434e-02 9.642344e-01 -1.915368e-01 9.642344e-01 -1.915368e-01 2.669096e-02 9.879406e-02
2.440000e+10 2.677850e-02 9.897945e-02 9.641296e-01 -1.919103e-01 9.641295e-01 -1.919102e-01 2.677842e-02 9.897916e-02
2.445000e+10 2.686612e-02 9.916448e-02 9.640246e-01 -1.922836e-01 9.640246e-01 -1.922835e-01 2.686604e-02 9.916420e-02
2.450000e+10 2.695391e-02 9.934944e-02 9.639195e-01 -1.926569e-01 9.639194e-01 -1.926568e-01 2.695382e-02 9.934915e-02
2.455000e+10 2.704186e-02 9.953432e-02 9.638142e-01 -1.930302e-01 9.638142e-01 -1.930301e-01 2.704177e-02 9.953403e-02
2.460000e+10 2.712997e-02 9.971912e-02 9.637088e-01 -1.934034e-01 9.637088e-01 -1.934033e-01 2.712988e-02 9.971883e-02
2.465000e+10 2.721825e-02 9.990384e-02 9.636033e-01 -1.937765e-01 9.636033e-01 -1.937765e-01 2.721816e-02 9.990355e-02
2.470000e+10 2.730669e-02 1.000885e-01 9.634976e-01 -1.941496e-01 9.634976e-01 -1.941496e-01 2.730660e-02 1.000882e-01
2.475000e+10 2.739530e-02 1.002730e-01 9.633918e-01 -1.945227e-01 9.633918e-01 -1.945226e-01 2.739521e-02 1.002727e-01
2.480000e+10 2.748407e-02 1.004575e-01 9.632859e-01 -1.948957e-01 9.632859e-01 -1.948957e-01 2.748398e-02 1.004572e-01
2.485000e+10 2.757301e-02 1.006419e-01 9.631798e-01 -1.952687e-01 9.631798e-01 -1.952687e-01 2.757292e-02 1.006416e-01
2.490000e+10 2.766211e-02 1.008262e-01 9.630736e-01 -1.956417e-01 9.630735e-01 -1.956416e-01 2.766202e-02 1.008259e-01
2.495000e+10 2.775138e-02 1.010103e-01 9.629672e-01 -1.960146e-01 9.629672e-01 -1.960145e-01 2.775129e-02 1.010100e-01
2.500000e+10 2.784081e-02 1.011944e-01 9.628607e-01 -1.963875e-01 9.628607e-01 -1.963874e-01 2.784072e-02 1.011941e-01
2.505000e+10 2.793040e-02 1.013785e-01 9.627541e-01 -1.967603e-01 9.627540e-01 -1.967602e-01 2.793031e-02 1.013781e-01
2.510000e+10 2.802016e-02 1.015624e-01 9.626473e-01 -1.971331e-01 9.626472e-01 -1.971331e-01 2.802007e-02 1.015621e-01
2.515000e+10 2.811007e-02 1.017462e-01 9.625403e-01 -1.975059e-01 9.625403e-01 -1.975058e-01 2.810999e-02 1.017459e-01
2.520000e+10 2.820016e-02 1.019299e-01 9.624332e-01 -1.978787e-01 9.624331e-01 -1.978786e-01 2.820007e-02 1.019296e-01
2.525000e+10 2.829040e-02 1.021135e-01 9.623259e-01 -1.982514e-01 9.623259e-01 -1.982513e-01 2.829031e-02 1.021132e-01
2.530000e+10 2.838080e-02 1.022970e-01 9.622185e-01 -1.986241e-01 9.622185e-01 -1.986240e-01 2.838071e-02 1.022967e-01
2.535000e+10 2.847136e-02 1.024804e-01 9.621109e-01 -1.989968e-01 9.621109e-01 -1.989967e-01 2.847127e-02 1.024801e-01
2.540000e+10 2.856208e-02 1.026637e-01 9.620032e-01 -1.993695e-01 9.620031e-01 -1.993694e-01 2.856199e-02 1.026634e-01
2.545000e+10 2.865295e-02 1.028469e-01 9.618953e-01 -1.997421e-01 9.618952e-01 -1.997420e-01 2.865287e-02 1.028465e-01
2.550000e+10 2.874399e-02 1.030299e-01 9.617872e-01 -2.001147e-01 9.617872e-01 -2.001146e-01 2.874390e-02 1.030296e-01
2.555000e+10 2.883518e-02 1.032129e-01 9.616790e-01 -2.004873e-01 9.616789e-01 -2.004872e-01 2.883509e-02 1.032126e-01
2.560000e+10 2.892652e-02 1.033957e-01 9.615706e-01 -2.008599e-01 9.615705e-01 -2.008598e-01 2.892643e-02 1.033954e-01
2.565000e+10 2.901802e-02 1.035785e-01 9.614620e-01 -2.012324e-01 9.614619e-01 -2.012323e-01 2.901793e-02 1.035782e-01
2.570000e+10 2.910967e-02 1.037611e-01 9.613532e-01 -2.016050e-01 9.613532e-01 -2.016049e-01 2.910958e-02 1.037608e-01
2.575000e+10 2.920146e-02 1.039436e-01 9.612443e-01 -2.019775e-01 9.612442e-01 -2.019774e-01 2.920138e-02 1.039433e-01
2.580000e+10 2.929341e-02 1.041260e-01 9.611351e-01 -2.023500e-01 9.611351e-01 -2.023499e-01 2.929333e-02 1.041257e-01
2.585000e+10 2.938551e-02 1.043083e-01 9.610258e-01 -2.027225e-01 9.610258e-01 -2.027224e-01 2.938542e-02 1.043079e-01
2.590000e+10 2.947775e-02 1.044904e-01 9.609163e-01 -2.030950e-01 9.609163e-01 -2.030949e-01 2.947767e-02 1.044901e-01
2.595000e+10 2.957014e-02 1.046725e-01 9.608066e-01 -2.034674e-01 9.608066e-01 -2.034673e-01 2.957005e-02 1.046721e-01
2.600000e+10 2.966267e-02 1.048544e-01 9.606967e-01 -2.038399e-01 9.606967e-01 -2.038398e-01 2.966258e-02 1.048540e-01
2.605000e+10 2.975535e-02 1.050362e-01 9.605866e-01 -2.042123e-01 9.605866e-01 -2.042122e-01 2.975526e-02 1.050358e-01
2.610000e+10 2.984816e-02 1.052178e-01 9.604763e-01 -2.045848e-01 9.604762e-01 -2.045846e-01 2.984807e-02 1.052175e-01
2.615000e+10 2.994112e-02 1.053994e-01 9.603658e-01 -2.049572e-01 9.603657e-01 -2.049570e-01 2.994103e-02 1.053990e-01
2.620000e+10 3.003421e-02 1.055808e-01 9.602550e-01 -2.053296e-01 9.602550e-01 -2.053294e-01 3.003412e-02 1.055804e-01
2.625000e+10 3.012743e-02 1.057621e-01 9.601441e-01 -2.057019e-01 9.601441e-01 -2.057018e-01 3.012734e-02 1.057617e-01
2.630000e+10 3.022079e-02 1.059433e-01 9.600329e-01 -2.060743e-01 9.600329e-01 -2.060741e-01 3.022070e-02 1.059429e-01
2.635000e+10 3.031429e-02 1.061243e-01 9.599215e-01 -2.064467e-01 9.599215e-01 -2.064465e-01 3.031419e-02 1.061239e-01
2.640000e+10 3.040791e-02 1.063052e-01 9.598099e-01 -2.068190e-01 9.598099e-01 -2.068188e-01 3.040782e-02 1.063049e-01
2.645000e+10 3.050166e-02 1.064861e-01 9.596981e-01 -2.071913e-01 9.596981e-01 -2.071911e-01 3.050157e-02 1.064857e-01
2.650000e+10 3.059554e-02 1.066667e-01 9.595860e-01 -2.075636e-01 9.595860e-01 -2.075634e-01 3.059545e-02 1.066664e-01
2.655000e+10 3.068955e-02 1.068473e-01 9.594737e-01 -2.079359e-01 9.594737e-01 -2.079357e-01 3.068945e-02 1.068469e-01
2.660000e+10 3.078368e-02 1.070277e-01 9.593611e-01 -2.083081e-01 9.593611e-01 -2.083079e-01 3.078358e-02 1.070273e-01
2.665000e+10 3.087793e-02 1.072081e-01 9.592483e-01 -2.086803e-01 9.592483e-01 -2.086802e-01 3.087783e-02 1.072077e-01
2.670000e+10 3.097231e-02 1.073882e-01 9.591353e-01 -2.090526e-01 9.591353e-01 -2.090524e-01 3.097221e-02 1.073879e-01
2.675000e+10 3.106680e-02 1.075683e-01 9.590220e-01 -2.094247e-01 9.590220e-01 -2.094246e-01 3.106670e-02 1.075679e-01
2.680000e+10 3.116141e-02 1.077483e-01 9.589084e-01 -2.097969e-01 9.589084e-01 -2.097967e-01 3.116130e-02 1.077479e-01
2.685000e+10 3.125613e-02 1.079281e-01 9.587946e-01 -2.101690e-01 9.587946e-01 -2.101688e-01 3.125603e-02 1.079277e-01
2.690000e+10 3.135097e-02 1.081078e-01 9.586805e-01 -2.105411e-01 9.586805e-01 -2.105409e-01 3.135087e-02 1.081074e-01
2.695000e+10 3.144593e-02 1.082874e-01 9.585661e-01 -2.109132e-01 9.585661e-01 -2.109130e-01 3.144582e-02 1.082870e-01
2.700000e+10 3.154099e-02 1.084669e-01 9.584515e-01 -2.112852e-01 9.584515e-01 -2.112850e-01 3.154088e-02 1.084665e-01
2.705000e+10 3.163616e-02 1.086463e-01 9.583366e-01 -2.116572e-01 9.583366e-01 -2.116570e-01 3.163605e-02 1.086459e-01
2.710000e+10 3.173145e-02 1.088256e-01 9.582214e-01 -2.120291e-01 9.582214e-01 -2.120289e-01 3.173133e-02 1.088251e-01
2.715000e+10 3.182684e-02 1.090047e-01 9.581059e-01 -2.124010e-01 9.581060e-01 -2.124008e-01 3.182672e-02 1.090043e-01
2.720000e+10 3.192234e-02 1.091837e-01 9.579902e-01 -2.127729e-01 9.579902e-01 -2.127726e-01 3.192222e-02 1.091833e-01
2.725000e+10 3.201794e-02 1.093627e-01 9.578741e-01 -2.131446e-01 9.578742e-01 -2.131444e-01 3.201782e-02 1.093622e-01
2.730000e+10 3.211364e-02 1.095415e-01 9.577578e-01 -2.135164e-01 9.577579e-01 -2.135162e-01 3.211352e-02 1.095411e-01
2.735000e+10 3.220945e-02 1.097202e-01 9.576412e-01 -2.138881e-01 9.576412e-01 -2.138879e-01 3.220933e-02 1.097198e-01
2.740000e+10 3.230537e-02 1.098989e-01 9.575243e-01 -2.142597e-01 9.575243e-01 -2.142595e-01 3.230524e-02 1.098984e-01
2.745000e+10 3.240138e-02 1.100774e-01 9.574071e-01 -2.146313e-01 9.574071e-01 -2.146310e-01 3.240125e-02 1.100769e-01
2.750000e+10 3.249749e-02 1.102558e-01 9.572895e-01 -2.150028e-01 9.572896e-01 -2.150025e-01 3.249736e-02 1.102554e-01
2.755000e+10 3.259371e-02 1.104342e-01 9.571717e-01 -2.153742e-01 9.571718e-01 -2.153739e-01 3.259357e-02 1.104337e-01
2.760000e+10 3.269002e-02 1.106124e-01 9.570536e-01 -2.157455e-01 9.570537e-01 -2.157453e-01 3.268988e-02 1.106119e-01
2.765000e+10 3.278643e-02 1.107906e-01 9.569352e-01 -2.161168e-01 9.569352e-01 -2.161166e-01 3.278629e-02 1.107901e-01
2.770000e+10 3.288294e-02 1.109687e-01 9.568164e-01 -2.164880e-01 9.568165e-01 -2.164877e-01 3.288279e-02 1.109682e-01
2.775000e+10 3.297955e-02 1.111466e-01 9.566974e-01 -2.168591e-01 9.566974e-01 -2.168588e-01 3.297940e-02 1.111462e-01
2.780000e+10 3.307626e-02 1.113246e-01 9.565780e-01 -2.172301e-01 9.565781e-01 -2.172298e-01 3.307610e-02 1.113241e-01
2.785000e+10 3.317306e-02 1.115024e-01 9.564583e-01 -2.176010e-01 9.564584e-01 -2.176007e-01 3.317291e-02 1.115019e-01
2.790000e+10 3.326997e-02 1.116801e-01 9.563383e-01 -2.179718e-01 9.563384e-01 -2.179715e-01 3.326981e-02 1.116796e-01
2.795000e+10 3.336697e-02 1.118578e-01 9.562180e-01 -2.183425e-01 9.562181e-01 -2.183422e-01 3.336681e-02 1.118573e-01
2.800000e+10 3.346408e-02 1.120355e-01 9.560974e-01 -2.187131e-01 9.560975e-01 -2.187128e-01 3.346390e-02 1.120349e-01
2.805000e+10 3.356128e-02 1.122130e-01 9.559764e-01 -2.190836e-01 9.559765e-01 -2.190833e-01 3.356110e-02 1.122125e-01
2.810000e+10 3.365858e-02 1.123905e-01 9.558552e-01 -2.194539e-01 9.558553e-01 -2.194537e-01 3.365840e-02 1.123900e-01
2.815000e+10 3.375599e-02 1.125679e-01 9.557336e-01 -2.198242e-01 9.557337e-01 -2.198239e-01 3.375580e-02 1.125674e-01
2.820000e+10 3.385350e-02 1.127453e-01 9.556117e-01 -2.201943e-01 9.556118e-01 -2.201940e-01 3.385330e-02 1.127448e-01
2.825000e+10 3.395111e-02 1.129227e-01 9.554895e-01 -2.205643e-01 9.554896e-01 -2.205640e-01 3.395091e-02 1.129221e-01
2.830000e+10 3.404882e-02 1.130999e-01 9.553669e-01 -2.209341e-01 9.553671e-01 -2.209338e-01 3.404862e-02 1.130994e-01
2.835000e+10 3.414665e-02 1.132772e-01 9.552441e-01 -2.213038e-01 9.552442e-01 -2.213035e-01 3.414644e-02 1.132766e-01
2.840000e+10 3.424458e-02 1.134544e-01 9.551209e-01 -2.216734e-01 9.551211e-01 -2.216731e-01 3.424436e-02 1.134538e-01
2.845000e+10 3.434261e-02 1.136315e-01 9.549974e-01 -2.220428e-01 9.549976e-01 -2.220425e-01 3.434239e-02 1.136310e-01
2.850000e+10 3.444077e-02 1.138087e-01 9.548737e-01 -2.224120e-01 9.548738e-01 -2.224117e-01 3.444054e-02 1.138081e-01
2.855000e+10 3.453903e-02 1.139857e-01 9.547496e-01 -2.227811e-01 9.547497e-01 -2.227808e-01 3.453880e-02 1.139852e-01
2.860000e+10 3.463741e-02 1.141628e-01 9.546252e-01 -2.231500e-01 9.546253e-01 -2.231497e-01 3.463717e-02 1.141622e-01
2.865000e+10 3.473591e-02 1.143398e-01 9.545005e-01 -2.235188e-01 9.545007e-01 -2.235185e-01 3.473566e-02 1.143393e-01
2.870000e+10 3.483452e-02 1.145169e-01 9.543755e-01 -2.238873e-01 9.543757e-01 -2.238871e-01 3.483427e-02 1.145163e-01
2.875000e+10 3.493326e-02 1.146939e-01 9.542502e-01 -2.242557e-01 9.542504e-01 -2.242555e-01 3.493300e-02 1.146933e-01
2.880000e+10 3.503213e-02 1.148708e-01 9.541246e-01 -2.246240e-01 9.541248e-01 -2.246237e-01 3.503186e-02 1.148702e-01
2.885000e+10 3.513112e-02 1.150478e-01 9.539987e-01 -2.249920e-01 9.539989e-01 -2.249917e-01 3.513085e-02 1.150472e-01
2.890000e+10 3.523025e-02 1.152248e-01 9.538726e-01 -2.253599e-01 9.538727e-01 -2.253596e-01 3.522996e-02 1.152242e-01
2.895000e+10 3.532951e-02 1.154017e-01 9.537461e-01 -2.257275e-01 9.537463e-01 -2.257272e-01 3.532921e-02 1.154011e-01
2.900000e+10 3.542890e-02 1.155787e-01 9.536194e-01 -2.260950e-01 9.536196e-01 -2.260947e-01 3.542860e-02 1.155781e-01
2.905000e+10 3.552844e-02 1.157556e-01 9.534924e-01 -2.264622e-01 9.534926e-01 -2.264620e-01 3.552813e-02 1.157550e-01
2.910000e+10 3.562812e-02 1.159326e-01 9.533651e-01 -2.268293e-01 9.533653e-01 -2.268290e-01 3.562781e-02 1.159320e-01
2.915000e+10 3.572796e-02 1.161095e-01 9.532376e-01 -2.271961e-01 9.532378e-01 -2.271959e-01 3.572763e-02 1.161089e-01
2.920000e+10 3.582794e-02 1.162865e-01 9.531098e-01 -2.275628e-01 9.531100e-01 -2.275625e-01 3.582760e-02 1.162859e-01
2.925000e+10 3.592808e-02 1.164635e-01 9.529818e-01 -2.279292e-01 9.529820e-01 -2.279290e-01 3.592773e-02 1.164629e-01
2.930000e+10 3.602838e-02 1.166405e-01 9.528535e-01 -2.282955e-01 9.528537e-01 -2.282952e-01 3.602802e-02 1.166398e-01
2.935000e+10 3.612884e-02 1.168175e-01 9.527250e-01 -2.286615e-01 9.527252e-01 -2.286612e-01 3.612847e-02 1.168168e-01
2.940000e+10 3.622947e-02 1.169945e-01 9.525962e-01 -2.290272e-01 9.525965e-01 -2.290270e-01 3.622910e-02 1.169939e-01
2.945000e+10 3.633027e-02 1.171715e-01 9.524673e-01 -2.293928e-01 9.524675e-01 -2.293925e-01 3.632989e-02 1.171709e-01
2.950000e+10 3.643125e-02 1.173486e-01 9.523381e-01 -2.297582e-01 9.523383e-01 -2.297579e-01 3.643086e-02 1.173479e-01
2.955000e+10 3.653241e-02 1.175257e-01 9.522087e-01 -2.301233e-01 9.522089e-01 -2.301230e-01 3.653201e-02 1.175250e-01
2.960000e+10 3.663376e-02 1.177028e-01 9.520791e-01 -2.304882e-01 9.520793e-01 -2.304879e-01 3.663334e-02 1.177021e-01
2.965000e+10 3.673530e-02 1.178799e-01 9.519493e-01 -2.308529e-01 9.519495e-01 -2.308526e-01 3.673487e-02 1.178792e-01
2.970000e+10 3.683703e-02 1.180570e-01 9.518193e-01 -2.312173e-01 9.518195e-01 -2.312171e-01 3.683659e-02 1.180564e-01
2.975000e+10 3.693896e-02 1.182342e-01 9.516891e-01 -2.315816e-01 9.516894e-01 -2.315813e-01 3.693851e-02 1.182335e-01
2.980000e+10 3.704109e-02 1.184114e-01 9.515588e-01 -2.319456e-01 9.515591e-01 -2.319453e-01 3.704063e-02 1.184107e-01
2.985000e+10 3.714343e-02 1.185886e-01 9.514283e-01 -2.323094e-01 9.514286e-01 -2.323091e-01 3.714296e-02 1.185880e-01
2.990000e+10 3.724599e-02 1.187659e-01 9.512976e-01 -2.326729e-01 9.512979e-01 -2.326727e-01 3.724550e-02 1.187652e-01
2.995000e+10 3.734876e-02 1.189432e-01 9.511668e-01 -2.330363e-01 9.511671e-01 -2.330360e-01 3.734826e-02 1.189425e-01
3.000000e+10 3.745176e-02 1.191205e-01 9.510359e-01 -2.333994e-01 9.510362e-01 -2.333992e-01 3.745125e-02 1.191198e-01
